$*$$$$$$$$$$$$$$$$$$$$$$$$$$$$$$$$$$$$$$$$$$$$$$$$$$$$$$$$$$$$$$$$$
$*
$*                    NX v7.5.4.4 TRANSLATOR
$*                    FOR NX NASTRAN VERSION 7.1
$*
$*             FEM FILE: I:\Project\Response\testcase\solve\testPrj_a.afm
$*             SIM FILE: I:\Project\Response\testcase\solve\testPrj_s.sim
$*        ANALYSIS TYPE: Structural
$*        SOLUTION NAME: Vsdane109
$*        SOLUTION TYPE: SEDTRAN 109
$*
$*    SOLVER INPUT FILE: testprj_s-vsdane109.dat
$*        CREATION DATE: 19-Dec-2011
$*        CREATION TIME: 20:28:28
$*             HOSTNAME: shi6w400
$*      NASTRAN LICENSE: Enterprise
$*
$*                UNITS: mm (milli-newton)
$*                      ... LENGTH : mm
$*                      ... TIME   : sec
$*                      ... MASS   : kilogram (kg)
$*                      ... TEMPERATURE : deg Celsius
$*                      ... FORCE  : milli-newton
$*                      ... THERMAL ENERGY : mN-mm (micro-joule)
$*
$* IMPORTANT NOTE:
$*     This banner was generated by NX and altering this information
$*     may compromise the NX post processing of results.
$*
$*$$$$$$$$$$$$$$$$$$$$$$$$$$$$$$$$$$$$$$$$$$$$$$$$$$$$$$$$$$$$$$$$$
$*
$*$$$$$$$$$$$$$$$$$$$$$$$$$$$$$$$$$$$
$*
$* FILE MANAGEMENT
$*
$*$$$$$$$$$$$$$$$$$$$$$$$$$$$$$$$$$$$
$*
$*
$*$$$$$$$$$$$$$$$$$$$$$$$$$$$$$$$$$$$
$*
$* EXECUTIVE CONTROL
$*
$*$$$$$$$$$$$$$$$$$$$$$$$$$$$$$$$$$$$
$*
ID,NASTRAN,testprj_s-vsdane109
SOL 109
CEND
$*
$*$$$$$$$$$$$$$$$$$$$$$$$$$$$$$$$$$$$
$*
$* CASE CONTROL
$*
$*$$$$$$$$$$$$$$$$$$$$$$$$$$$$$$$$$$$
$*
$* KEYIN TEXT
DLOAD=2000
$*
$*  NX Group (nodes): 1  Name: NodesForNoise
SET 1 = 6126, 6136, 6146, 6156, 6166, 6402, 6412, 6422, 6432, 6442, 
        6514 THRU 6515, 6518 THRU 6519
$* 
$*  NX Group (nodes): 2  Name: NodeForResponse
SET 2 = 1694, 1902, 5294, 6654
$* 
$*  NX Group (elements): 3  Name: ElementForResponse
SET 3 = 34, 627, 4096, 4441, 4483
$* 
ECHO = NONE
SPC = 100
$*  NX Step: Subcase - Structure
SUBCASE 1
LABEL = Subcase - Structure
TSTEP = 101
OUTPUT
ACCELERATION(PRINT,PUNCH,REAL) = 2
DISPLACEMENT(PRINT,PUNCH,REAL) = 2
STRESS(PRINT,PUNCH,REAL,VONMISES,CENTER) = 3
$*  NX Step: Subcase - Noise
SUBCASE 2
LABEL = Subcase - Noise
TSTEP = 102
OUTPUT
VELOCITY(PRINT,PUNCH,REAL) = 1
$*
$*$$$$$$$$$$$$$$$$$$$$$$$$$$$$$$$$$$$
$*
$* BULK DATA
$*
$*$$$$$$$$$$$$$$$$$$$$$$$$$$$$$$$$$$$
$*
BEGIN BULK
$* KEYIN TEXT
include 'force.dat'
include 'moment.dat'
include 'dload.dat'
$*
$*
$* SOLUTION CARDS
$*
TSTEP        101    40315.0000-4       1
TSTEP        102    40315.0000-4       1
$*
$* PARAM CARDS
$*
PARAM          G  0.0000
PARAM      K6ROT100.0000
PARAM    OMACHPR     YES
PARAM       POST      -2
PARAM    POSTEXT     YES
PARAM    UNITSYS   MN-MM
PARAM         W3  0.0000
PARAM         W4  0.0000
$*
$* GRID CARDS
$*
GRID*               2096               0-1.500000000E+03-1.000000000E+03+
*       1.8000000000E+04               0
GRID*               2097               0-1.500000000E+03-1.000000000E+03+
*       -8.668621376E-13               0
GRID*                 75               0-1.500000000E+030.0000000000E+00+
*       -8.668621376E-13               0
GRID*                 76               0-1.500000000E+030.0000000000E+00+
*       1.8000000000E+04               0
GRID*               2098               01.5000000000E+03-1.000000000E+03+
*       -8.668621376E-13               0
GRID*               2099               01.5000000000E+03-1.000000000E+03+
*       1.8000000000E+04               0
GRID*                 79               01.5000000000E+030.0000000000E+00+
*       -8.668621376E-13               0
GRID*                 80               01.5000000000E+030.0000000000E+00+
*       1.8000000000E+04               0
GRID*               1814               0-1.500000000E+03-1.000000000E+03+
*       1.7400000000E+04               0
GRID*               1815               0-1.500000000E+03-1.000000000E+03+
*       1.6800000000E+04               0
GRID*               1816               0-1.500000000E+03-1.000000000E+03+
*       1.6200000000E+04               0
GRID*               1817               0-1.500000000E+03-1.000000000E+03+
*       1.5600000000E+04               0
GRID*               1818               0-1.500000000E+03-1.000000000E+03+
*       1.5000000000E+04               0
GRID*               1819               0-1.500000000E+03-1.000000000E+03+
*       1.4400000000E+04               0
GRID*               1820               0-1.500000000E+03-1.000000000E+03+
*       1.3800000000E+04               0
GRID*               1821               0-1.500000000E+03-1.000000000E+03+
*       1.3200000000E+04               0
GRID*               1822               0-1.500000000E+03-1.000000000E+03+
*       1.2600000000E+04               0
GRID*               1823               0-1.500000000E+03-1.000000000E+03+
*       1.2000000000E+04               0
GRID*               1824               0-1.500000000E+03-1.000000000E+03+
*       1.1400000000E+04               0
GRID*               1825               0-1.500000000E+03-1.000000000E+03+
*       1.0800000000E+04               0
GRID*               1826               0-1.500000000E+03-1.000000000E+03+
*       1.0200000000E+04               0
GRID*               1827               0-1.500000000E+03-1.000000000E+03+
*       9.6000000000E+03               0
GRID*               1828               0-1.500000000E+03-1.000000000E+03+
*       9.0000000000E+03               0
GRID*               1829               0-1.500000000E+03-1.000000000E+03+
*       8.4000000000E+03               0
GRID*               1830               0-1.500000000E+03-1.000000000E+03+
*       7.8000000000E+03               0
GRID*               1831               0-1.500000000E+03-1.000000000E+03+
*       7.2000000000E+03               0
GRID*               1832               0-1.500000000E+03-1.000000000E+03+
*       6.6000000000E+03               0
GRID*               1833               0-1.500000000E+03-1.000000000E+03+
*       6.0000000000E+03               0
GRID*               1834               0-1.500000000E+03-1.000000000E+03+
*       5.4000000000E+03               0
GRID*               1835               0-1.500000000E+03-1.000000000E+03+
*       4.8000000000E+03               0
GRID*               1836               0-1.500000000E+03-1.000000000E+03+
*       4.2000000000E+03               0
GRID*               1837               0-1.500000000E+03-1.000000000E+03+
*       3.6000000000E+03               0
GRID*               1838               0-1.500000000E+03-1.000000000E+03+
*       3.0000000000E+03               0
GRID*               1839               0-1.500000000E+03-1.000000000E+03+
*       2.4000000000E+03               0
GRID*               1840               0-1.500000000E+03-1.000000000E+03+
*       1.8000000000E+03               0
GRID*               1841               0-1.500000000E+03-1.000000000E+03+
*       1.2000000000E+03               0
GRID*               1842               0-1.500000000E+03-1.000000000E+03+
*       6.0000000000E+02               0
GRID*               1843               0-1.500000000E+03-1.000000000E+03+
*       3.0000000000E+02               0
GRID*               1844               0-1.500000000E+03-1.000000000E+03+
*       9.0000000000E+02               0
GRID*               1845               0-1.500000000E+03-1.000000000E+03+
*       1.5000000000E+03               0
GRID*               1846               0-1.500000000E+03-1.000000000E+03+
*       2.1000000000E+03               0
GRID*               1847               0-1.500000000E+03-1.000000000E+03+
*       2.7000000000E+03               0
GRID*               1848               0-1.500000000E+03-1.000000000E+03+
*       3.3000000000E+03               0
GRID*               1849               0-1.500000000E+03-1.000000000E+03+
*       3.9000000000E+03               0
GRID*               1850               0-1.500000000E+03-1.000000000E+03+
*       4.5000000000E+03               0
GRID*               1851               0-1.500000000E+03-1.000000000E+03+
*       5.1000000000E+03               0
GRID*               1852               0-1.500000000E+03-1.000000000E+03+
*       5.7000000000E+03               0
GRID*               1853               0-1.500000000E+03-1.000000000E+03+
*       6.3000000000E+03               0
GRID*               1854               0-1.500000000E+03-1.000000000E+03+
*       6.9000000000E+03               0
GRID*               1855               0-1.500000000E+03-1.000000000E+03+
*       7.5000000000E+03               0
GRID*               1856               0-1.500000000E+03-1.000000000E+03+
*       8.1000000000E+03               0
GRID*               1857               0-1.500000000E+03-1.000000000E+03+
*       8.7000000000E+03               0
GRID*               1858               0-1.500000000E+03-1.000000000E+03+
*       9.3000000000E+03               0
GRID*               1859               0-1.500000000E+03-1.000000000E+03+
*       9.9000000000E+03               0
GRID*               1860               0-1.500000000E+03-1.000000000E+03+
*       1.0500000000E+04               0
GRID*               1861               0-1.500000000E+03-1.000000000E+03+
*       1.1100000000E+04               0
GRID*               1862               0-1.500000000E+03-1.000000000E+03+
*       1.1700000000E+04               0
GRID*               1863               0-1.500000000E+03-1.000000000E+03+
*       1.2300000000E+04               0
GRID*               1864               0-1.500000000E+03-1.000000000E+03+
*       1.2900000000E+04               0
GRID*               1865               0-1.500000000E+03-1.000000000E+03+
*       1.3500000000E+04               0
GRID*               1866               0-1.500000000E+03-1.000000000E+03+
*       1.4100000000E+04               0
GRID*               1867               0-1.500000000E+03-1.000000000E+03+
*       1.4700000000E+04               0
GRID*               1868               0-1.500000000E+03-1.000000000E+03+
*       1.5300000000E+04               0
GRID*               1869               0-1.500000000E+03-1.000000000E+03+
*       1.5900000000E+04               0
GRID*               1870               0-1.500000000E+03-1.000000000E+03+
*       1.6500000000E+04               0
GRID*               1871               0-1.500000000E+03-1.000000000E+03+
*       1.7100000000E+04               0
GRID*               1872               0-1.500000000E+03-1.000000000E+03+
*       1.7700000000E+04               0
GRID*               1873               0-1.500000000E+03-5.000000000E+02+
*       -8.668621376E-13               0
GRID*               1874               0-1.500000000E+03-2.500000000E+02+
*       -8.668621376E-13               0
GRID*               1875               0-1.500000000E+03-7.500000000E+02+
*       -8.668621376E-13               0
GRID*               1876               0-1.500000000E+03-5.000000000E+02+
*       1.8000000000E+04               0
GRID*               1877               0-1.500000000E+03-7.500000000E+02+
*       1.8000000000E+04               0
GRID*               1878               0-1.500000000E+03-2.500000000E+02+
*       1.8000000000E+04               0
GRID*                 36               0-1.500000000E+030.0000000000E+00+
*       9.0000000000E+03               0
GRID*               1879               0-1.500000000E+030.0000000000E+00+
*       1.7400000000E+04               0
GRID*               1880               0-1.500000000E+030.0000000000E+00+
*       1.6800000000E+04               0
GRID*               1881               0-1.500000000E+030.0000000000E+00+
*       1.6200000000E+04               0
GRID*               1882               0-1.500000000E+030.0000000000E+00+
*       1.5600000000E+04               0
GRID*               1883               0-1.500000000E+030.0000000000E+00+
*       1.5000000000E+04               0
GRID*               1884               0-1.500000000E+030.0000000000E+00+
*       1.4400000000E+04               0
GRID*               1885               0-1.500000000E+030.0000000000E+00+
*       1.3800000000E+04               0
GRID*               1886               0-1.500000000E+030.0000000000E+00+
*       1.3200000000E+04               0
GRID*               1887               0-1.500000000E+030.0000000000E+00+
*       1.2600000000E+04               0
GRID*               1888               0-1.500000000E+030.0000000000E+00+
*       1.2000000000E+04               0
GRID*               1889               0-1.500000000E+030.0000000000E+00+
*       1.1400000000E+04               0
GRID*               1890               0-1.500000000E+030.0000000000E+00+
*       1.0800000000E+04               0
GRID*               1891               0-1.500000000E+030.0000000000E+00+
*       1.0200000000E+04               0
GRID*               1892               0-1.500000000E+030.0000000000E+00+
*       9.6000000000E+03               0
GRID*               1893               0-1.500000000E+030.0000000000E+00+
*       8.4000000000E+03               0
GRID*               1894               0-1.500000000E+030.0000000000E+00+
*       7.8000000000E+03               0
GRID*               1895               0-1.500000000E+030.0000000000E+00+
*       7.2000000000E+03               0
GRID*               1896               0-1.500000000E+030.0000000000E+00+
*       6.6000000000E+03               0
GRID*               1897               0-1.500000000E+030.0000000000E+00+
*       6.0000000000E+03               0
GRID*               1898               0-1.500000000E+030.0000000000E+00+
*       5.4000000000E+03               0
GRID*               1899               0-1.500000000E+030.0000000000E+00+
*       4.8000000000E+03               0
GRID*               1900               0-1.500000000E+030.0000000000E+00+
*       4.2000000000E+03               0
GRID*               1901               0-1.500000000E+030.0000000000E+00+
*       3.6000000000E+03               0
GRID*               1902               0-1.500000000E+030.0000000000E+00+
*       3.0000000000E+03               0
GRID*               1903               0-1.500000000E+030.0000000000E+00+
*       2.4000000000E+03               0
GRID*               1904               0-1.500000000E+030.0000000000E+00+
*       1.8000000000E+03               0
GRID*               1905               0-1.500000000E+030.0000000000E+00+
*       1.2000000000E+03               0
GRID*               1906               0-1.500000000E+030.0000000000E+00+
*       6.0000000000E+02               0
GRID*               1907               0-1.500000000E+030.0000000000E+00+
*       3.0000000000E+02               0
GRID*               1908               0-1.500000000E+030.0000000000E+00+
*       1.7700000000E+04               0
GRID*               1909               0-1.500000000E+030.0000000000E+00+
*       1.7100000000E+04               0
GRID*               1910               0-1.500000000E+030.0000000000E+00+
*       1.6500000000E+04               0
GRID*               1911               0-1.500000000E+030.0000000000E+00+
*       1.5900000000E+04               0
GRID*               1912               0-1.500000000E+030.0000000000E+00+
*       1.5300000000E+04               0
GRID*               1913               0-1.500000000E+030.0000000000E+00+
*       1.4700000000E+04               0
GRID*               1914               0-1.500000000E+030.0000000000E+00+
*       1.4100000000E+04               0
GRID*               1915               0-1.500000000E+030.0000000000E+00+
*       1.3500000000E+04               0
GRID*               1916               0-1.500000000E+030.0000000000E+00+
*       1.2900000000E+04               0
GRID*               1917               0-1.500000000E+030.0000000000E+00+
*       1.2300000000E+04               0
GRID*               1918               0-1.500000000E+030.0000000000E+00+
*       1.1700000000E+04               0
GRID*               1919               0-1.500000000E+030.0000000000E+00+
*       1.1100000000E+04               0
GRID*               1920               0-1.500000000E+030.0000000000E+00+
*       1.0500000000E+04               0
GRID*               1921               0-1.500000000E+030.0000000000E+00+
*       9.9000000000E+03               0
GRID*               1922               0-1.500000000E+030.0000000000E+00+
*       9.3000000000E+03               0
GRID*               1923               0-1.500000000E+030.0000000000E+00+
*       8.7000000000E+03               0
GRID*               1924               0-1.500000000E+030.0000000000E+00+
*       8.1000000000E+03               0
GRID*               1925               0-1.500000000E+030.0000000000E+00+
*       7.5000000000E+03               0
GRID*               1926               0-1.500000000E+030.0000000000E+00+
*       6.9000000000E+03               0
GRID*               1927               0-1.500000000E+030.0000000000E+00+
*       6.3000000000E+03               0
GRID*               1928               0-1.500000000E+030.0000000000E+00+
*       5.7000000000E+03               0
GRID*               1929               0-1.500000000E+030.0000000000E+00+
*       5.1000000000E+03               0
GRID*               1930               0-1.500000000E+030.0000000000E+00+
*       4.5000000000E+03               0
GRID*               1931               0-1.500000000E+030.0000000000E+00+
*       3.9000000000E+03               0
GRID*               1932               0-1.500000000E+030.0000000000E+00+
*       3.3000000000E+03               0
GRID*               1933               0-1.500000000E+030.0000000000E+00+
*       2.7000000000E+03               0
GRID*               1934               0-1.500000000E+030.0000000000E+00+
*       2.1000000000E+03               0
GRID*               1935               0-1.500000000E+030.0000000000E+00+
*       1.5000000000E+03               0
GRID*               1936               0-1.500000000E+030.0000000000E+00+
*       9.0000000000E+02               0
GRID*               1937               0-9.000000000E+02-1.000000000E+03+
*       -8.668621376E-13               0
GRID*               1938               0-3.000000000E+02-1.000000000E+03+
*       -8.668621376E-13               0
GRID*               1939               03.0000000000E+02-1.000000000E+03+
*       -8.668621376E-13               0
GRID*               1940               09.0000000000E+02-1.000000000E+03+
*       -8.668621376E-13               0
GRID*               1941               01.2000000000E+03-1.000000000E+03+
*       -8.668621376E-13               0
GRID*               1942               06.0000000000E+02-1.000000000E+03+
*       -8.668621376E-13               0
GRID*               1943               00.0000000000E+00-1.000000000E+03+
*       -8.668621376E-13               0
GRID*               1944               0-6.000000000E+02-1.000000000E+03+
*       -8.668621376E-13               0
GRID*               1945               0-1.200000000E+03-1.000000000E+03+
*       -8.668621376E-13               0
GRID*               1946               0-9.000000000E+02-1.000000000E+03+
*       1.8000000000E+04               0
GRID*               1947               0-3.000000000E+02-1.000000000E+03+
*       1.8000000000E+04               0
GRID*               1948               03.0000000000E+02-1.000000000E+03+
*       1.8000000000E+04               0
GRID*               1949               09.0000000000E+02-1.000000000E+03+
*       1.8000000000E+04               0
GRID*               1950               0-1.200000000E+03-1.000000000E+03+
*       1.8000000000E+04               0
GRID*               1951               0-6.000000000E+02-1.000000000E+03+
*       1.8000000000E+04               0
GRID*               1952               00.0000000000E+00-1.000000000E+03+
*       1.8000000000E+04               0
GRID*               1953               06.0000000000E+02-1.000000000E+03+
*       1.8000000000E+04               0
GRID*               1954               01.2000000000E+03-1.000000000E+03+
*       1.8000000000E+04               0
GRID*               1955               09.0000000000E+020.0000000000E+00+
*       -8.668621376E-13               0
GRID*               1956               03.0000000000E+020.0000000000E+00+
*       -8.668621376E-13               0
GRID*               1957               0-3.000000000E+020.0000000000E+00+
*       -8.668621376E-13               0
GRID*               1958               0-9.000000000E+020.0000000000E+00+
*       -8.668621376E-13               0
GRID*               1959               0-1.200000000E+030.0000000000E+00+
*       -8.668621376E-13               0
GRID*               1960               0-6.000000000E+020.0000000000E+00+
*       -8.668621376E-13               0
GRID*               1961               00.0000000000E+000.0000000000E+00+
*       -8.668621376E-13               0
GRID*               1962               06.0000000000E+020.0000000000E+00+
*       -8.668621376E-13               0
GRID*               1963               01.2000000000E+030.0000000000E+00+
*       -8.668621376E-13               0
GRID*               1964               09.0000000000E+020.0000000000E+00+
*       1.8000000000E+04               0
GRID*               1965               03.0000000000E+020.0000000000E+00+
*       1.8000000000E+04               0
GRID*               1966               0-3.000000000E+020.0000000000E+00+
*       1.8000000000E+04               0
GRID*               1967               0-9.000000000E+020.0000000000E+00+
*       1.8000000000E+04               0
GRID*               1968               01.2000000000E+030.0000000000E+00+
*       1.8000000000E+04               0
GRID*               1969               06.0000000000E+020.0000000000E+00+
*       1.8000000000E+04               0
GRID*               1970               00.0000000000E+000.0000000000E+00+
*       1.8000000000E+04               0
GRID*               1971               0-6.000000000E+020.0000000000E+00+
*       1.8000000000E+04               0
GRID*               1972               0-1.200000000E+030.0000000000E+00+
*       1.8000000000E+04               0
GRID*               1973               01.5000000000E+03-1.000000000E+03+
*       1.7400000000E+04               0
GRID*               1974               01.5000000000E+03-1.000000000E+03+
*       1.6800000000E+04               0
GRID*               1975               01.5000000000E+03-1.000000000E+03+
*       1.6200000000E+04               0
GRID*               1976               01.5000000000E+03-1.000000000E+03+
*       1.5600000000E+04               0
GRID*               1977               01.5000000000E+03-1.000000000E+03+
*       1.5000000000E+04               0
GRID*               1978               01.5000000000E+03-1.000000000E+03+
*       1.4400000000E+04               0
GRID*               1979               01.5000000000E+03-1.000000000E+03+
*       1.3800000000E+04               0
GRID*               1980               01.5000000000E+03-1.000000000E+03+
*       1.3200000000E+04               0
GRID*               1981               01.5000000000E+03-1.000000000E+03+
*       1.2600000000E+04               0
GRID*               1982               01.5000000000E+03-1.000000000E+03+
*       1.2000000000E+04               0
GRID*               1983               01.5000000000E+03-1.000000000E+03+
*       1.1400000000E+04               0
GRID*               1984               01.5000000000E+03-1.000000000E+03+
*       1.0800000000E+04               0
GRID*               1985               01.5000000000E+03-1.000000000E+03+
*       1.0200000000E+04               0
GRID*               1986               01.5000000000E+03-1.000000000E+03+
*       9.6000000000E+03               0
GRID*               1987               01.5000000000E+03-1.000000000E+03+
*       9.0000000000E+03               0
GRID*               1988               01.5000000000E+03-1.000000000E+03+
*       8.4000000000E+03               0
GRID*               1989               01.5000000000E+03-1.000000000E+03+
*       7.8000000000E+03               0
GRID*               1990               01.5000000000E+03-1.000000000E+03+
*       7.2000000000E+03               0
GRID*               1991               01.5000000000E+03-1.000000000E+03+
*       6.6000000000E+03               0
GRID*               1992               01.5000000000E+03-1.000000000E+03+
*       6.0000000000E+03               0
GRID*               1993               01.5000000000E+03-1.000000000E+03+
*       5.4000000000E+03               0
GRID*               1994               01.5000000000E+03-1.000000000E+03+
*       4.8000000000E+03               0
GRID*               1995               01.5000000000E+03-1.000000000E+03+
*       4.2000000000E+03               0
GRID*               1996               01.5000000000E+03-1.000000000E+03+
*       3.6000000000E+03               0
GRID*               1997               01.5000000000E+03-1.000000000E+03+
*       3.0000000000E+03               0
GRID*               1998               01.5000000000E+03-1.000000000E+03+
*       2.4000000000E+03               0
GRID*               1999               01.5000000000E+03-1.000000000E+03+
*       1.8000000000E+03               0
GRID*               2000               01.5000000000E+03-1.000000000E+03+
*       1.2000000000E+03               0
GRID*               2001               01.5000000000E+03-1.000000000E+03+
*       6.0000000000E+02               0
GRID*               2002               01.5000000000E+03-1.000000000E+03+
*       3.0000000000E+02               0
GRID*               2003               01.5000000000E+03-1.000000000E+03+
*       1.7700000000E+04               0
GRID*               2004               01.5000000000E+03-1.000000000E+03+
*       1.7100000000E+04               0
GRID*               2005               01.5000000000E+03-1.000000000E+03+
*       1.6500000000E+04               0
GRID*               2006               01.5000000000E+03-1.000000000E+03+
*       1.5900000000E+04               0
GRID*               2007               01.5000000000E+03-1.000000000E+03+
*       1.5300000000E+04               0
GRID*               2008               01.5000000000E+03-1.000000000E+03+
*       1.4700000000E+04               0
GRID*               2009               01.5000000000E+03-1.000000000E+03+
*       1.4100000000E+04               0
GRID*               2010               01.5000000000E+03-1.000000000E+03+
*       1.3500000000E+04               0
GRID*               2011               01.5000000000E+03-1.000000000E+03+
*       1.2900000000E+04               0
GRID*               2012               01.5000000000E+03-1.000000000E+03+
*       1.2300000000E+04               0
GRID*               2013               01.5000000000E+03-1.000000000E+03+
*       1.1700000000E+04               0
GRID*               2014               01.5000000000E+03-1.000000000E+03+
*       1.1100000000E+04               0
GRID*               2015               01.5000000000E+03-1.000000000E+03+
*       1.0500000000E+04               0
GRID*               2016               01.5000000000E+03-1.000000000E+03+
*       9.9000000000E+03               0
GRID*               2017               01.5000000000E+03-1.000000000E+03+
*       9.3000000000E+03               0
GRID*               2018               01.5000000000E+03-1.000000000E+03+
*       8.7000000000E+03               0
GRID*               2019               01.5000000000E+03-1.000000000E+03+
*       8.1000000000E+03               0
GRID*               2020               01.5000000000E+03-1.000000000E+03+
*       7.5000000000E+03               0
GRID*               2021               01.5000000000E+03-1.000000000E+03+
*       6.9000000000E+03               0
GRID*               2022               01.5000000000E+03-1.000000000E+03+
*       6.3000000000E+03               0
GRID*               2023               01.5000000000E+03-1.000000000E+03+
*       5.7000000000E+03               0
GRID*               2024               01.5000000000E+03-1.000000000E+03+
*       5.1000000000E+03               0
GRID*               2025               01.5000000000E+03-1.000000000E+03+
*       4.5000000000E+03               0
GRID*               2026               01.5000000000E+03-1.000000000E+03+
*       3.9000000000E+03               0
GRID*               2027               01.5000000000E+03-1.000000000E+03+
*       3.3000000000E+03               0
GRID*               2028               01.5000000000E+03-1.000000000E+03+
*       2.7000000000E+03               0
GRID*               2029               01.5000000000E+03-1.000000000E+03+
*       2.1000000000E+03               0
GRID*               2030               01.5000000000E+03-1.000000000E+03+
*       1.5000000000E+03               0
GRID*               2031               01.5000000000E+03-1.000000000E+03+
*       9.0000000000E+02               0
GRID*               2032               01.5000000000E+03-5.000000000E+02+
*       -8.668621376E-13               0
GRID*               2033               01.5000000000E+03-7.500000000E+02+
*       -8.668621376E-13               0
GRID*               2034               01.5000000000E+03-2.500000000E+02+
*       -8.668621376E-13               0
GRID*               2035               01.5000000000E+03-5.000000000E+02+
*       1.8000000000E+04               0
GRID*               2036               01.5000000000E+03-7.500000000E+02+
*       1.8000000000E+04               0
GRID*               2037               01.5000000000E+03-2.500000000E+02+
*       1.8000000000E+04               0
GRID*                 64               01.5000000000E+030.0000000000E+00+
*       9.0000000000E+03               0
GRID*               2038               01.5000000000E+030.0000000000E+00+
*       1.7400000000E+04               0
GRID*               2039               01.5000000000E+030.0000000000E+00+
*       1.6800000000E+04               0
GRID*               2040               01.5000000000E+030.0000000000E+00+
*       1.6200000000E+04               0
GRID*               2041               01.5000000000E+030.0000000000E+00+
*       1.5600000000E+04               0
GRID*               2042               01.5000000000E+030.0000000000E+00+
*       1.5000000000E+04               0
GRID*               2043               01.5000000000E+030.0000000000E+00+
*       1.4400000000E+04               0
GRID*               2044               01.5000000000E+030.0000000000E+00+
*       1.3800000000E+04               0
GRID*               2045               01.5000000000E+030.0000000000E+00+
*       1.3200000000E+04               0
GRID*               2046               01.5000000000E+030.0000000000E+00+
*       1.2600000000E+04               0
GRID*               2047               01.5000000000E+030.0000000000E+00+
*       1.2000000000E+04               0
GRID*               2048               01.5000000000E+030.0000000000E+00+
*       1.1400000000E+04               0
GRID*               2049               01.5000000000E+030.0000000000E+00+
*       1.0800000000E+04               0
GRID*               2050               01.5000000000E+030.0000000000E+00+
*       1.0200000000E+04               0
GRID*               2051               01.5000000000E+030.0000000000E+00+
*       9.6000000000E+03               0
GRID*               2052               01.5000000000E+030.0000000000E+00+
*       8.4000000000E+03               0
GRID*               2053               01.5000000000E+030.0000000000E+00+
*       7.8000000000E+03               0
GRID*               2054               01.5000000000E+030.0000000000E+00+
*       7.2000000000E+03               0
GRID*               2055               01.5000000000E+030.0000000000E+00+
*       6.6000000000E+03               0
GRID*               2056               01.5000000000E+030.0000000000E+00+
*       6.0000000000E+03               0
GRID*               2057               01.5000000000E+030.0000000000E+00+
*       5.4000000000E+03               0
GRID*               2058               01.5000000000E+030.0000000000E+00+
*       4.8000000000E+03               0
GRID*               2059               01.5000000000E+030.0000000000E+00+
*       4.2000000000E+03               0
GRID*               2060               01.5000000000E+030.0000000000E+00+
*       3.6000000000E+03               0
GRID*               2061               01.5000000000E+030.0000000000E+00+
*       3.0000000000E+03               0
GRID*               2062               01.5000000000E+030.0000000000E+00+
*       2.4000000000E+03               0
GRID*               2063               01.5000000000E+030.0000000000E+00+
*       1.8000000000E+03               0
GRID*               2064               01.5000000000E+030.0000000000E+00+
*       1.2000000000E+03               0
GRID*               2065               01.5000000000E+030.0000000000E+00+
*       6.0000000000E+02               0
GRID*               2066               01.5000000000E+030.0000000000E+00+
*       3.0000000000E+02               0
GRID*               2067               01.5000000000E+030.0000000000E+00+
*       1.7700000000E+04               0
GRID*               2068               01.5000000000E+030.0000000000E+00+
*       1.7100000000E+04               0
GRID*               2069               01.5000000000E+030.0000000000E+00+
*       1.6500000000E+04               0
GRID*               2070               01.5000000000E+030.0000000000E+00+
*       1.5900000000E+04               0
GRID*               2071               01.5000000000E+030.0000000000E+00+
*       1.5300000000E+04               0
GRID*               2072               01.5000000000E+030.0000000000E+00+
*       1.4700000000E+04               0
GRID*               2073               01.5000000000E+030.0000000000E+00+
*       1.4100000000E+04               0
GRID*               2074               01.5000000000E+030.0000000000E+00+
*       1.3500000000E+04               0
GRID*               2075               01.5000000000E+030.0000000000E+00+
*       1.2900000000E+04               0
GRID*               2076               01.5000000000E+030.0000000000E+00+
*       1.2300000000E+04               0
GRID*               2077               01.5000000000E+030.0000000000E+00+
*       1.1700000000E+04               0
GRID*               2078               01.5000000000E+030.0000000000E+00+
*       1.1100000000E+04               0
GRID*               2079               01.5000000000E+030.0000000000E+00+
*       1.0500000000E+04               0
GRID*               2080               01.5000000000E+030.0000000000E+00+
*       9.9000000000E+03               0
GRID*               2081               01.5000000000E+030.0000000000E+00+
*       9.3000000000E+03               0
GRID*               2082               01.5000000000E+030.0000000000E+00+
*       8.7000000000E+03               0
GRID*               2083               01.5000000000E+030.0000000000E+00+
*       8.1000000000E+03               0
GRID*               2084               01.5000000000E+030.0000000000E+00+
*       7.5000000000E+03               0
GRID*               2085               01.5000000000E+030.0000000000E+00+
*       6.9000000000E+03               0
GRID*               2086               01.5000000000E+030.0000000000E+00+
*       6.3000000000E+03               0
GRID*               2087               01.5000000000E+030.0000000000E+00+
*       5.7000000000E+03               0
GRID*               2088               01.5000000000E+030.0000000000E+00+
*       5.1000000000E+03               0
GRID*               2089               01.5000000000E+030.0000000000E+00+
*       4.5000000000E+03               0
GRID*               2090               01.5000000000E+030.0000000000E+00+
*       3.9000000000E+03               0
GRID*               2091               01.5000000000E+030.0000000000E+00+
*       3.3000000000E+03               0
GRID*               2092               01.5000000000E+030.0000000000E+00+
*       2.7000000000E+03               0
GRID*               2093               01.5000000000E+030.0000000000E+00+
*       2.1000000000E+03               0
GRID*               2094               01.5000000000E+030.0000000000E+00+
*       1.5000000000E+03               0
GRID*               2095               01.5000000000E+030.0000000000E+00+
*       9.0000000000E+02               0
GRID*                901               09.0000000000E+02-1.000000000E+03+
*       6.0000000000E+02               0
GRID*                902               03.0000000000E+02-1.000000000E+03+
*       6.0000000000E+02               0
GRID*                903               0-3.000000000E+02-1.000000000E+03+
*       6.0000000000E+02               0
GRID*                904               0-9.000000000E+02-1.000000000E+03+
*       6.0000000000E+02               0
GRID*                905               0-9.000000000E+02-1.000000000E+03+
*       1.2000000000E+03               0
GRID*                906               0-9.000000000E+02-1.000000000E+03+
*       1.8000000000E+03               0
GRID*                907               0-9.000000000E+02-1.000000000E+03+
*       2.4000000000E+03               0
GRID*                908               0-9.000000000E+02-1.000000000E+03+
*       3.0000000000E+03               0
GRID*                909               0-9.000000000E+02-1.000000000E+03+
*       3.6000000000E+03               0
GRID*                910               0-9.000000000E+02-1.000000000E+03+
*       4.2000000000E+03               0
GRID*                911               0-9.000000000E+02-1.000000000E+03+
*       4.8000000000E+03               0
GRID*                912               0-9.000000000E+02-1.000000000E+03+
*       5.4000000000E+03               0
GRID*                913               0-9.000000000E+02-1.000000000E+03+
*       6.0000000000E+03               0
GRID*                914               0-9.000000000E+02-1.000000000E+03+
*       6.6000000000E+03               0
GRID*                915               0-9.000000000E+02-1.000000000E+03+
*       7.2000000000E+03               0
GRID*                916               0-9.000000000E+02-1.000000000E+03+
*       7.8000000000E+03               0
GRID*                917               0-9.000000000E+02-1.000000000E+03+
*       8.4000000000E+03               0
GRID*                918               0-9.000000000E+02-1.000000000E+03+
*       9.0000000000E+03               0
GRID*                919               0-9.000000000E+02-1.000000000E+03+
*       9.6000000000E+03               0
GRID*                920               0-9.000000000E+02-1.000000000E+03+
*       1.0200000000E+04               0
GRID*                921               0-9.000000000E+02-1.000000000E+03+
*       1.0800000000E+04               0
GRID*                922               0-9.000000000E+02-1.000000000E+03+
*       1.1400000000E+04               0
GRID*                923               0-9.000000000E+02-1.000000000E+03+
*       1.2000000000E+04               0
GRID*                924               0-9.000000000E+02-1.000000000E+03+
*       1.2600000000E+04               0
GRID*                925               0-9.000000000E+02-1.000000000E+03+
*       1.3200000000E+04               0
GRID*                926               0-9.000000000E+02-1.000000000E+03+
*       1.3800000000E+04               0
GRID*                927               0-9.000000000E+02-1.000000000E+03+
*       1.4400000000E+04               0
GRID*                928               0-9.000000000E+02-1.000000000E+03+
*       1.5000000000E+04               0
GRID*                929               0-9.000000000E+02-1.000000000E+03+
*       1.5600000000E+04               0
GRID*                930               0-9.000000000E+02-1.000000000E+03+
*       1.6200000000E+04               0
GRID*                931               0-9.000000000E+02-1.000000000E+03+
*       1.6799999860E+04               0
GRID*                932               0-9.000000000E+02-1.000000000E+03+
*       1.7400000000E+04               0
GRID*                933               0-3.000000000E+02-1.000000000E+03+
*       1.7400000000E+04               0
GRID*                934               03.0000000000E+02-1.000000000E+03+
*       1.7400000000E+04               0
GRID*                935               09.0000000000E+02-1.000000000E+03+
*       1.7400000000E+04               0
GRID*                936               09.0000000000E+02-1.000000000E+03+
*       1.6800000000E+04               0
GRID*                937               09.0000000000E+02-1.000000000E+03+
*       1.6200000000E+04               0
GRID*                938               09.0000000000E+02-1.000000000E+03+
*       1.5600000000E+04               0
GRID*                939               09.0000000000E+02-1.000000000E+03+
*       1.5000000000E+04               0
GRID*                940               09.0000000000E+02-1.000000000E+03+
*       1.4400000000E+04               0
GRID*                941               09.0000000000E+02-1.000000000E+03+
*       1.3800000000E+04               0
GRID*                942               09.0000000000E+02-1.000000000E+03+
*       1.3200000000E+04               0
GRID*                943               09.0000000000E+02-1.000000000E+03+
*       1.2600000000E+04               0
GRID*                944               09.0000000000E+02-1.000000000E+03+
*       1.2000000000E+04               0
GRID*                945               09.0000000000E+02-1.000000000E+03+
*       1.1400000000E+04               0
GRID*                946               09.0000000000E+02-1.000000000E+03+
*       1.0800000000E+04               0
GRID*                947               09.0000000000E+02-1.000000000E+03+
*       1.0200000000E+04               0
GRID*                948               09.0000000000E+02-1.000000000E+03+
*       9.6000000000E+03               0
GRID*                949               09.0000000000E+02-1.000000000E+03+
*       9.0000000000E+03               0
GRID*                950               09.0000000000E+02-1.000000000E+03+
*       8.4000000000E+03               0
GRID*                951               09.0000000000E+02-1.000000000E+03+
*       7.8000000000E+03               0
GRID*                952               09.0000006986E+02-1.000000000E+03+
*       7.1999998603E+03               0
GRID*                953               09.0000000000E+02-1.000000000E+03+
*       6.6000000000E+03               0
GRID*                954               09.0000000000E+02-1.000000000E+03+
*       6.0000000000E+03               0
GRID*                955               09.0000000000E+02-1.000000000E+03+
*       5.4000000000E+03               0
GRID*                956               09.0000000000E+02-1.000000000E+03+
*       4.8000000000E+03               0
GRID*                957               09.0000000000E+02-1.000000000E+03+
*       4.2000000000E+03               0
GRID*                958               09.0000000000E+02-1.000000000E+03+
*       3.6000000000E+03               0
GRID*                959               09.0000000000E+02-1.000000000E+03+
*       3.0000000000E+03               0
GRID*                960               09.0000000000E+02-1.000000000E+03+
*       2.4000000000E+03               0
GRID*                961               09.0000000000E+02-1.000000000E+03+
*       1.8000000000E+03               0
GRID*                962               09.0000006986E+02-1.000000000E+03+
*       1.1999997205E+03               0
GRID*                963               03.0000000000E+02-1.000000000E+03+
*       1.2000000000E+03               0
GRID*                964               0-3.000000000E+02-1.000000000E+03+
*       1.2000000000E+03               0
GRID*                965               0-3.000000000E+02-1.000000000E+03+
*       1.8000000000E+03               0
GRID*                966               0-3.000000000E+02-1.000000000E+03+
*       2.4000000000E+03               0
GRID*                967               0-3.000000000E+02-1.000000000E+03+
*       3.0000000000E+03               0
GRID*                968               0-2.999999144E+02-1.000000000E+03+
*       3.5999996577E+03               0
GRID*                969               0-3.000000000E+02-1.000000000E+03+
*       4.2000000000E+03               0
GRID*                970               0-3.000000000E+02-1.000000000E+03+
*       4.8000000000E+03               0
GRID*                971               0-3.000000000E+02-1.000000000E+03+
*       5.4000000000E+03               0
GRID*                972               0-3.000000000E+02-1.000000000E+03+
*       6.0000000000E+03               0
GRID*                973               0-3.000000000E+02-1.000000000E+03+
*       6.6000000000E+03               0
GRID*                974               0-3.000000000E+02-1.000000000E+03+
*       7.2000000000E+03               0
GRID*                975               0-3.000000000E+02-1.000000000E+03+
*       7.8000000000E+03               0
GRID*                976               0-3.000000000E+02-1.000000000E+03+
*       8.4000000000E+03               0
GRID*                977               0-3.000000000E+02-1.000000000E+03+
*       9.0000000000E+03               0
GRID*                978               0-3.000000000E+02-1.000000000E+03+
*       9.6000000000E+03               0
GRID*                979               0-3.000000000E+02-1.000000000E+03+
*       1.0200000000E+04               0
GRID*                980               0-3.000000000E+02-1.000000000E+03+
*       1.0800000000E+04               0
GRID*                981               0-3.000000000E+02-1.000000000E+03+
*       1.1400000000E+04               0
GRID*                982               0-3.000000000E+02-1.000000000E+03+
*       1.2000000000E+04               0
GRID*                983               0-3.000000000E+02-1.000000000E+03+
*       1.2600000000E+04               0
GRID*                984               0-3.000000000E+02-1.000000000E+03+
*       1.3200000000E+04               0
GRID*                985               0-3.000000000E+02-1.000000000E+03+
*       1.3800000000E+04               0
GRID*                986               0-3.000000000E+02-1.000000000E+03+
*       1.4400000000E+04               0
GRID*                987               0-3.000000000E+02-1.000000000E+03+
*       1.5000000000E+04               0
GRID*                988               0-3.000000000E+02-1.000000000E+03+
*       1.5600000000E+04               0
GRID*                989               0-3.000000000E+02-1.000000000E+03+
*       1.6200000000E+04               0
GRID*                990               0-3.000000000E+02-1.000000000E+03+
*       1.6800000000E+04               0
GRID*                991               03.0000000000E+02-1.000000000E+03+
*       1.6800000000E+04               0
GRID*                992               03.0000000000E+02-1.000000000E+03+
*       1.6200000000E+04               0
GRID*                993               03.0000000000E+02-1.000000000E+03+
*       1.5600000000E+04               0
GRID*                994               03.0000000000E+02-1.000000000E+03+
*       1.5000000000E+04               0
GRID*                995               03.0000000000E+02-1.000000000E+03+
*       1.4400000000E+04               0
GRID*                996               03.0000000000E+02-1.000000000E+03+
*       1.3800000000E+04               0
GRID*                997               03.0000000000E+02-1.000000000E+03+
*       1.3200000000E+04               0
GRID*                998               03.0000000000E+02-1.000000000E+03+
*       1.2600000000E+04               0
GRID*                999               03.0000000000E+02-1.000000000E+03+
*       1.2000000000E+04               0
GRID*               1000               03.0000000000E+02-1.000000000E+03+
*       1.1400000000E+04               0
GRID*               1001               03.0000000000E+02-1.000000000E+03+
*       1.0800000000E+04               0
GRID*               1002               03.0000000000E+02-1.000000000E+03+
*       1.0200000000E+04               0
GRID*               1003               03.0000000000E+02-1.000000000E+03+
*       9.6000000000E+03               0
GRID*               1004               03.0000000000E+02-1.000000000E+03+
*       9.0000000000E+03               0
GRID*               1005               03.0000000000E+02-1.000000000E+03+
*       8.4000000000E+03               0
GRID*               1006               03.0000000000E+02-1.000000000E+03+
*       7.8000000000E+03               0
GRID*               1007               03.0000000000E+02-1.000000000E+03+
*       7.2000000000E+03               0
GRID*               1008               03.0000000000E+02-1.000000000E+03+
*       6.6000000000E+03               0
GRID*               1009               03.0000000000E+02-1.000000000E+03+
*       6.0000000000E+03               0
GRID*               1010               03.0000000000E+02-1.000000000E+03+
*       5.4000000000E+03               0
GRID*               1011               03.0000000000E+02-1.000000000E+03+
*       4.8000000000E+03               0
GRID*               1012               03.0000000000E+02-1.000000000E+03+
*       4.2000000000E+03               0
GRID*               1013               03.0000000000E+02-1.000000000E+03+
*       3.6000000000E+03               0
GRID*               1014               03.0000000000E+02-1.000000000E+03+
*       3.0000000000E+03               0
GRID*               1015               03.0000000000E+02-1.000000000E+03+
*       2.4000000000E+03               0
GRID*               1016               03.0000000000E+02-1.000000000E+03+
*       1.8000000000E+03               0
GRID*               1017               01.2000000000E+03-1.000000000E+03+
*       6.0000000000E+02               0
GRID*               1018               09.0000000000E+02-1.000000000E+03+
*       3.0000000000E+02               0
GRID*               1019               03.0000000000E+02-1.000000000E+03+
*       3.0000000000E+02               0
GRID*               1020               06.0000000000E+02-1.000000000E+03+
*       6.0000000000E+02               0
GRID*               1021               0-3.000000000E+02-1.000000000E+03+
*       3.0000000000E+02               0
GRID*               1022               01.2114753645E-12-1.000000000E+03+
*       6.0000000000E+02               0
GRID*               1023               0-9.000000000E+02-1.000000000E+03+
*       3.0000000000E+02               0
GRID*               1024               0-6.000000000E+02-1.000000000E+03+
*       6.0000000000E+02               0
GRID*               1025               0-1.200000000E+03-1.000000000E+03+
*       6.0000000000E+02               0
GRID*               1026               0-1.200000000E+03-1.000000000E+03+
*       1.2000000000E+03               0
GRID*               1027               0-9.000000000E+02-1.000000000E+03+
*       9.0000000000E+02               0
GRID*               1028               0-1.200000000E+03-1.000000000E+03+
*       1.8000000000E+03               0
GRID*               1029               0-9.000000000E+02-1.000000000E+03+
*       1.5000000000E+03               0
GRID*               1030               0-1.200000000E+03-1.000000000E+03+
*       2.4000000000E+03               0
GRID*               1031               0-9.000000000E+02-1.000000000E+03+
*       2.1000000000E+03               0
GRID*               1032               0-1.200000000E+03-1.000000000E+03+
*       3.0000000000E+03               0
GRID*               1033               0-9.000000000E+02-1.000000000E+03+
*       2.7000000000E+03               0
GRID*               1034               0-1.200000000E+03-1.000000000E+03+
*       3.6000000000E+03               0
GRID*               1035               0-9.000000000E+02-1.000000000E+03+
*       3.3000000000E+03               0
GRID*               1036               0-1.200000000E+03-1.000000000E+03+
*       4.2000000000E+03               0
GRID*               1037               0-9.000000000E+02-1.000000000E+03+
*       3.9000000000E+03               0
GRID*               1038               0-1.200000000E+03-1.000000000E+03+
*       4.8000000000E+03               0
GRID*               1039               0-9.000000000E+02-1.000000000E+03+
*       4.5000000000E+03               0
GRID*               1040               0-1.200000000E+03-1.000000000E+03+
*       5.4000000000E+03               0
GRID*               1041               0-9.000000000E+02-1.000000000E+03+
*       5.1000000000E+03               0
GRID*               1042               0-1.200000000E+03-1.000000000E+03+
*       6.0000000000E+03               0
GRID*               1043               0-9.000000000E+02-1.000000000E+03+
*       5.7000000000E+03               0
GRID*               1044               0-1.200000000E+03-1.000000000E+03+
*       6.6000000000E+03               0
GRID*               1045               0-9.000000000E+02-1.000000000E+03+
*       6.3000000000E+03               0
GRID*               1046               0-1.200000000E+03-1.000000000E+03+
*       7.2000000000E+03               0
GRID*               1047               0-9.000000000E+02-1.000000000E+03+
*       6.9000000000E+03               0
GRID*               1048               0-1.200000000E+03-1.000000000E+03+
*       7.8000000000E+03               0
GRID*               1049               0-9.000000000E+02-1.000000000E+03+
*       7.5000000000E+03               0
GRID*               1050               0-1.200000000E+03-1.000000000E+03+
*       8.4000000000E+03               0
GRID*               1051               0-9.000000000E+02-1.000000000E+03+
*       8.1000000000E+03               0
GRID*               1052               0-1.200000000E+03-1.000000000E+03+
*       9.0000000000E+03               0
GRID*               1053               0-9.000000000E+02-1.000000000E+03+
*       8.7000000000E+03               0
GRID*               1054               0-1.200000000E+03-1.000000000E+03+
*       9.6000000000E+03               0
GRID*               1055               0-9.000000000E+02-1.000000000E+03+
*       9.3000000000E+03               0
GRID*               1056               0-1.200000000E+03-1.000000000E+03+
*       1.0200000000E+04               0
GRID*               1057               0-9.000000000E+02-1.000000000E+03+
*       9.9000000000E+03               0
GRID*               1058               0-1.200000000E+03-1.000000000E+03+
*       1.0800000000E+04               0
GRID*               1059               0-9.000000000E+02-1.000000000E+03+
*       1.0500000000E+04               0
GRID*               1060               0-1.200000000E+03-1.000000000E+03+
*       1.1400000000E+04               0
GRID*               1061               0-9.000000000E+02-1.000000000E+03+
*       1.1100000000E+04               0
GRID*               1062               0-1.200000000E+03-1.000000000E+03+
*       1.2000000000E+04               0
GRID*               1063               0-9.000000000E+02-1.000000000E+03+
*       1.1700000000E+04               0
GRID*               1064               0-1.200000000E+03-1.000000000E+03+
*       1.2600000000E+04               0
GRID*               1065               0-9.000000000E+02-1.000000000E+03+
*       1.2300000000E+04               0
GRID*               1066               0-1.200000000E+03-1.000000000E+03+
*       1.3200000000E+04               0
GRID*               1067               0-9.000000000E+02-1.000000000E+03+
*       1.2900000000E+04               0
GRID*               1068               0-1.200000000E+03-1.000000000E+03+
*       1.3800000000E+04               0
GRID*               1069               0-9.000000000E+02-1.000000000E+03+
*       1.3500000000E+04               0
GRID*               1070               0-1.200000000E+03-1.000000000E+03+
*       1.4400000000E+04               0
GRID*               1071               0-9.000000000E+02-1.000000000E+03+
*       1.4100000000E+04               0
GRID*               1072               0-1.200000000E+03-1.000000000E+03+
*       1.5000000000E+04               0
GRID*               1073               0-9.000000000E+02-1.000000000E+03+
*       1.4700000000E+04               0
GRID*               1074               0-1.200000000E+03-1.000000000E+03+
*       1.5600000000E+04               0
GRID*               1075               0-9.000000000E+02-1.000000000E+03+
*       1.5300000000E+04               0
GRID*               1076               0-1.200000000E+03-1.000000000E+03+
*       1.6200000000E+04               0
GRID*               1077               0-9.000000000E+02-1.000000000E+03+
*       1.5900000000E+04               0
GRID*               1078               0-1.200000000E+03-1.000000000E+03+
*       1.6799999930E+04               0
GRID*               1079               0-9.000000000E+02-1.000000000E+03+
*       1.6499999930E+04               0
GRID*               1080               0-1.200000000E+03-1.000000000E+03+
*       1.7400000000E+04               0
GRID*               1081               0-9.000000000E+02-1.000000000E+03+
*       1.7099999930E+04               0
GRID*               1082               0-9.000000000E+02-1.000000000E+03+
*       1.7700000000E+04               0
GRID*               1083               0-3.000000000E+02-1.000000000E+03+
*       1.7700000000E+04               0
GRID*               1084               0-6.000000000E+02-1.000000000E+03+
*       1.7400000000E+04               0
GRID*               1085               03.0000000000E+02-1.000000000E+03+
*       1.7700000000E+04               0
GRID*               1086               0-1.492139745E-13-1.000000000E+03+
*       1.7400000000E+04               0
GRID*               1087               09.0000000000E+02-1.000000000E+03+
*       1.7700000000E+04               0
GRID*               1088               06.0000000000E+02-1.000000000E+03+
*       1.7400000000E+04               0
GRID*               1089               01.2000000000E+03-1.000000000E+03+
*       1.7400000000E+04               0
GRID*               1090               01.2000000000E+03-1.000000000E+03+
*       1.6800000000E+04               0
GRID*               1091               09.0000000000E+02-1.000000000E+03+
*       1.7100000000E+04               0
GRID*               1092               01.2000000000E+03-1.000000000E+03+
*       1.6200000000E+04               0
GRID*               1093               09.0000000000E+02-1.000000000E+03+
*       1.6500000000E+04               0
GRID*               1094               01.2000000000E+03-1.000000000E+03+
*       1.5600000000E+04               0
GRID*               1095               09.0000000000E+02-1.000000000E+03+
*       1.5900000000E+04               0
GRID*               1096               01.2000000000E+03-1.000000000E+03+
*       1.5000000000E+04               0
GRID*               1097               09.0000000000E+02-1.000000000E+03+
*       1.5300000000E+04               0
GRID*               1098               01.2000000000E+03-1.000000000E+03+
*       1.4400000000E+04               0
GRID*               1099               09.0000000000E+02-1.000000000E+03+
*       1.4700000000E+04               0
GRID*               1100               01.2000000000E+03-1.000000000E+03+
*       1.3800000000E+04               0
GRID*               1101               09.0000000000E+02-1.000000000E+03+
*       1.4100000000E+04               0
GRID*               1102               01.2000000000E+03-1.000000000E+03+
*       1.3200000000E+04               0
GRID*               1103               09.0000000000E+02-1.000000000E+03+
*       1.3500000000E+04               0
GRID*               1104               01.2000000000E+03-1.000000000E+03+
*       1.2600000000E+04               0
GRID*               1105               09.0000000000E+02-1.000000000E+03+
*       1.2900000000E+04               0
GRID*               1106               01.2000000000E+03-1.000000000E+03+
*       1.2000000000E+04               0
GRID*               1107               09.0000000000E+02-1.000000000E+03+
*       1.2300000000E+04               0
GRID*               1108               01.2000000000E+03-1.000000000E+03+
*       1.1400000000E+04               0
GRID*               1109               09.0000000000E+02-1.000000000E+03+
*       1.1700000000E+04               0
GRID*               1110               01.2000000000E+03-1.000000000E+03+
*       1.0800000000E+04               0
GRID*               1111               09.0000000000E+02-1.000000000E+03+
*       1.1100000000E+04               0
GRID*               1112               01.2000000000E+03-1.000000000E+03+
*       1.0200000000E+04               0
GRID*               1113               09.0000000000E+02-1.000000000E+03+
*       1.0500000000E+04               0
GRID*               1114               01.2000000000E+03-1.000000000E+03+
*       9.6000000000E+03               0
GRID*               1115               09.0000000000E+02-1.000000000E+03+
*       9.9000000000E+03               0
GRID*               1116               01.2000000000E+03-1.000000000E+03+
*       9.0000000000E+03               0
GRID*               1117               09.0000000000E+02-1.000000000E+03+
*       9.3000000000E+03               0
GRID*               1118               01.2000000000E+03-1.000000000E+03+
*       8.4000000000E+03               0
GRID*               1119               09.0000000000E+02-1.000000000E+03+
*       8.7000000000E+03               0
GRID*               1120               01.2000000000E+03-1.000000000E+03+
*       7.8000000000E+03               0
GRID*               1121               09.0000000000E+02-1.000000000E+03+
*       8.1000000000E+03               0
GRID*               1122               01.2000000349E+03-1.000000000E+03+
*       7.1999999301E+03               0
GRID*               1123               09.0000003493E+02-1.000000000E+03+
*       7.4999999301E+03               0
GRID*               1124               01.2000000000E+03-1.000000000E+03+
*       6.6000000000E+03               0
GRID*               1125               09.0000003493E+02-1.000000000E+03+
*       6.8999999301E+03               0
GRID*               1126               01.2000000000E+03-1.000000000E+03+
*       6.0000000000E+03               0
GRID*               1127               09.0000000000E+02-1.000000000E+03+
*       6.3000000000E+03               0
GRID*               1128               01.2000000000E+03-1.000000000E+03+
*       5.4000000000E+03               0
GRID*               1129               09.0000000000E+02-1.000000000E+03+
*       5.7000000000E+03               0
GRID*               1130               01.2000000000E+03-1.000000000E+03+
*       4.8000000000E+03               0
GRID*               1131               09.0000000000E+02-1.000000000E+03+
*       5.1000000000E+03               0
GRID*               1132               01.2000000000E+03-1.000000000E+03+
*       4.2000000000E+03               0
GRID*               1133               09.0000000000E+02-1.000000000E+03+
*       4.5000000000E+03               0
GRID*               1134               01.2000000000E+03-1.000000000E+03+
*       3.6000000000E+03               0
GRID*               1135               09.0000000000E+02-1.000000000E+03+
*       3.9000000000E+03               0
GRID*               1136               01.2000000000E+03-1.000000000E+03+
*       3.0000000000E+03               0
GRID*               1137               09.0000000000E+02-1.000000000E+03+
*       3.3000000000E+03               0
GRID*               1138               01.2000000000E+03-1.000000000E+03+
*       2.4000000000E+03               0
GRID*               1139               09.0000000000E+02-1.000000000E+03+
*       2.7000000000E+03               0
GRID*               1140               01.2000000000E+03-1.000000000E+03+
*       1.8000000000E+03               0
GRID*               1141               09.0000000000E+02-1.000000000E+03+
*       2.1000000000E+03               0
GRID*               1142               01.2000000349E+03-1.000000000E+03+
*       1.1999998603E+03               0
GRID*               1143               09.0000003493E+02-1.000000000E+03+
*       1.4999998603E+03               0
GRID*               1144               09.0000003493E+02-1.000000000E+03+
*       8.9999986027E+02               0
GRID*               1145               06.0000003493E+02-1.000000000E+03+
*       1.1999998603E+03               0
GRID*               1146               03.0000000000E+02-1.000000000E+03+
*       9.0000000000E+02               0
GRID*               1147               0-3.000000000E+02-1.000000000E+03+
*       9.0000000000E+02               0
GRID*               1148               0-2.060573934E-13-1.000000000E+03+
*       1.2000000000E+03               0
GRID*               1149               0-6.000000000E+02-1.000000000E+03+
*       1.2000000000E+03               0
GRID*               1150               0-6.000000000E+02-1.000000000E+03+
*       1.8000000000E+03               0
GRID*               1151               0-3.000000000E+02-1.000000000E+03+
*       1.5000000000E+03               0
GRID*               1152               0-6.000000000E+02-1.000000000E+03+
*       2.4000000000E+03               0
GRID*               1153               0-3.000000000E+02-1.000000000E+03+
*       2.1000000000E+03               0
GRID*               1154               0-6.000000000E+02-1.000000000E+03+
*       3.0000000000E+03               0
GRID*               1155               0-3.000000000E+02-1.000000000E+03+
*       2.7000000000E+03               0
GRID*               1156               0-5.999999572E+02-1.000000000E+03+
*       3.5999998289E+03               0
GRID*               1157               0-2.999999572E+02-1.000000000E+03+
*       3.2999998289E+03               0
GRID*               1158               0-6.000000000E+02-1.000000000E+03+
*       4.2000000000E+03               0
GRID*               1159               0-2.999999572E+02-1.000000000E+03+
*       3.8999998289E+03               0
GRID*               1160               0-6.000000000E+02-1.000000000E+03+
*       4.8000000000E+03               0
GRID*               1161               0-3.000000000E+02-1.000000000E+03+
*       4.5000000000E+03               0
GRID*               1162               0-6.000000000E+02-1.000000000E+03+
*       5.4000000000E+03               0
GRID*               1163               0-3.000000000E+02-1.000000000E+03+
*       5.1000000000E+03               0
GRID*               1164               0-6.000000000E+02-1.000000000E+03+
*       6.0000000000E+03               0
GRID*               1165               0-3.000000000E+02-1.000000000E+03+
*       5.7000000000E+03               0
GRID*               1166               0-6.000000000E+02-1.000000000E+03+
*       6.6000000000E+03               0
GRID*               1167               0-3.000000000E+02-1.000000000E+03+
*       6.3000000000E+03               0
GRID*               1168               0-6.000000000E+02-1.000000000E+03+
*       7.2000000000E+03               0
GRID*               1169               0-3.000000000E+02-1.000000000E+03+
*       6.9000000000E+03               0
GRID*               1170               0-6.000000000E+02-1.000000000E+03+
*       7.8000000000E+03               0
GRID*               1171               0-3.000000000E+02-1.000000000E+03+
*       7.5000000000E+03               0
GRID*               1172               0-6.000000000E+02-1.000000000E+03+
*       8.4000000000E+03               0
GRID*               1173               0-3.000000000E+02-1.000000000E+03+
*       8.1000000000E+03               0
GRID*               1174               0-6.000000000E+02-1.000000000E+03+
*       9.0000000000E+03               0
GRID*               1175               0-3.000000000E+02-1.000000000E+03+
*       8.7000000000E+03               0
GRID*               1176               0-6.000000000E+02-1.000000000E+03+
*       9.6000000000E+03               0
GRID*               1177               0-3.000000000E+02-1.000000000E+03+
*       9.3000000000E+03               0
GRID*               1178               0-6.000000000E+02-1.000000000E+03+
*       1.0200000000E+04               0
GRID*               1179               0-3.000000000E+02-1.000000000E+03+
*       9.9000000000E+03               0
GRID*               1180               0-6.000000000E+02-1.000000000E+03+
*       1.0800000000E+04               0
GRID*               1181               0-3.000000000E+02-1.000000000E+03+
*       1.0500000000E+04               0
GRID*               1182               0-6.000000000E+02-1.000000000E+03+
*       1.1400000000E+04               0
GRID*               1183               0-3.000000000E+02-1.000000000E+03+
*       1.1100000000E+04               0
GRID*               1184               0-6.000000000E+02-1.000000000E+03+
*       1.2000000000E+04               0
GRID*               1185               0-3.000000000E+02-1.000000000E+03+
*       1.1700000000E+04               0
GRID*               1186               0-6.000000000E+02-1.000000000E+03+
*       1.2600000000E+04               0
GRID*               1187               0-3.000000000E+02-1.000000000E+03+
*       1.2300000000E+04               0
GRID*               1188               0-6.000000000E+02-1.000000000E+03+
*       1.3200000000E+04               0
GRID*               1189               0-3.000000000E+02-1.000000000E+03+
*       1.2900000000E+04               0
GRID*               1190               0-6.000000000E+02-1.000000000E+03+
*       1.3800000000E+04               0
GRID*               1191               0-3.000000000E+02-1.000000000E+03+
*       1.3500000000E+04               0
GRID*               1192               0-6.000000000E+02-1.000000000E+03+
*       1.4400000000E+04               0
GRID*               1193               0-3.000000000E+02-1.000000000E+03+
*       1.4100000000E+04               0
GRID*               1194               0-6.000000000E+02-1.000000000E+03+
*       1.5000000000E+04               0
GRID*               1195               0-3.000000000E+02-1.000000000E+03+
*       1.4700000000E+04               0
GRID*               1196               0-6.000000000E+02-1.000000000E+03+
*       1.5600000000E+04               0
GRID*               1197               0-3.000000000E+02-1.000000000E+03+
*       1.5300000000E+04               0
GRID*               1198               0-6.000000000E+02-1.000000000E+03+
*       1.6200000000E+04               0
GRID*               1199               0-3.000000000E+02-1.000000000E+03+
*       1.5900000000E+04               0
GRID*               1200               0-6.000000000E+02-1.000000000E+03+
*       1.6799999930E+04               0
GRID*               1201               0-3.000000000E+02-1.000000000E+03+
*       1.6500000000E+04               0
GRID*               1202               0-3.000000000E+02-1.000000000E+03+
*       1.7100000000E+04               0
GRID*               1203               03.0000000000E+02-1.000000000E+03+
*       1.7100000000E+04               0
GRID*               1204               0-1.421085472E-14-1.000000000E+03+
*       1.6800000000E+04               0
GRID*               1205               06.0000000000E+02-1.000000000E+03+
*       1.6800000000E+04               0
GRID*               1206               06.0000000000E+02-1.000000000E+03+
*       1.6200000000E+04               0
GRID*               1207               03.0000000000E+02-1.000000000E+03+
*       1.6500000000E+04               0
GRID*               1208               06.0000000000E+02-1.000000000E+03+
*       1.5600000000E+04               0
GRID*               1209               03.0000000000E+02-1.000000000E+03+
*       1.5900000000E+04               0
GRID*               1210               06.0000000000E+02-1.000000000E+03+
*       1.5000000000E+04               0
GRID*               1211               03.0000000000E+02-1.000000000E+03+
*       1.5300000000E+04               0
GRID*               1212               06.0000000000E+02-1.000000000E+03+
*       1.4400000000E+04               0
GRID*               1213               03.0000000000E+02-1.000000000E+03+
*       1.4700000000E+04               0
GRID*               1214               06.0000000000E+02-1.000000000E+03+
*       1.3800000000E+04               0
GRID*               1215               03.0000000000E+02-1.000000000E+03+
*       1.4100000000E+04               0
GRID*               1216               06.0000000000E+02-1.000000000E+03+
*       1.3200000000E+04               0
GRID*               1217               03.0000000000E+02-1.000000000E+03+
*       1.3500000000E+04               0
GRID*               1218               06.0000000000E+02-1.000000000E+03+
*       1.2600000000E+04               0
GRID*               1219               03.0000000000E+02-1.000000000E+03+
*       1.2900000000E+04               0
GRID*               1220               06.0000000000E+02-1.000000000E+03+
*       1.2000000000E+04               0
GRID*               1221               03.0000000000E+02-1.000000000E+03+
*       1.2300000000E+04               0
GRID*               1222               06.0000000000E+02-1.000000000E+03+
*       1.1400000000E+04               0
GRID*               1223               03.0000000000E+02-1.000000000E+03+
*       1.1700000000E+04               0
GRID*               1224               06.0000000000E+02-1.000000000E+03+
*       1.0800000000E+04               0
GRID*               1225               03.0000000000E+02-1.000000000E+03+
*       1.1100000000E+04               0
GRID*               1226               06.0000000000E+02-1.000000000E+03+
*       1.0200000000E+04               0
GRID*               1227               03.0000000000E+02-1.000000000E+03+
*       1.0500000000E+04               0
GRID*               1228               06.0000000000E+02-1.000000000E+03+
*       9.6000000000E+03               0
GRID*               1229               03.0000000000E+02-1.000000000E+03+
*       9.9000000000E+03               0
GRID*               1230               06.0000000000E+02-1.000000000E+03+
*       9.0000000000E+03               0
GRID*               1231               03.0000000000E+02-1.000000000E+03+
*       9.3000000000E+03               0
GRID*               1232               06.0000000000E+02-1.000000000E+03+
*       8.4000000000E+03               0
GRID*               1233               03.0000000000E+02-1.000000000E+03+
*       8.7000000000E+03               0
GRID*               1234               06.0000000000E+02-1.000000000E+03+
*       7.8000000000E+03               0
GRID*               1235               03.0000000000E+02-1.000000000E+03+
*       8.1000000000E+03               0
GRID*               1236               06.0000003493E+02-1.000000000E+03+
*       7.1999999301E+03               0
GRID*               1237               03.0000000000E+02-1.000000000E+03+
*       7.5000000000E+03               0
GRID*               1238               06.0000000000E+02-1.000000000E+03+
*       6.6000000000E+03               0
GRID*               1239               03.0000000000E+02-1.000000000E+03+
*       6.9000000000E+03               0
GRID*               1240               06.0000000000E+02-1.000000000E+03+
*       6.0000000000E+03               0
GRID*               1241               03.0000000000E+02-1.000000000E+03+
*       6.3000000000E+03               0
GRID*               1242               06.0000000000E+02-1.000000000E+03+
*       5.4000000000E+03               0
GRID*               1243               03.0000000000E+02-1.000000000E+03+
*       5.7000000000E+03               0
GRID*               1244               06.0000000000E+02-1.000000000E+03+
*       4.8000000000E+03               0
GRID*               1245               03.0000000000E+02-1.000000000E+03+
*       5.1000000000E+03               0
GRID*               1246               06.0000000000E+02-1.000000000E+03+
*       4.2000000000E+03               0
GRID*               1247               03.0000000000E+02-1.000000000E+03+
*       4.5000000000E+03               0
GRID*               1248               06.0000000000E+02-1.000000000E+03+
*       3.6000000000E+03               0
GRID*               1249               03.0000000000E+02-1.000000000E+03+
*       3.9000000000E+03               0
GRID*               1250               06.0000000000E+02-1.000000000E+03+
*       3.0000000000E+03               0
GRID*               1251               03.0000000000E+02-1.000000000E+03+
*       3.3000000000E+03               0
GRID*               1252               06.0000000000E+02-1.000000000E+03+
*       2.4000000000E+03               0
GRID*               1253               03.0000000000E+02-1.000000000E+03+
*       2.7000000000E+03               0
GRID*               1254               06.0000000000E+02-1.000000000E+03+
*       1.8000000000E+03               0
GRID*               1255               03.0000000000E+02-1.000000000E+03+
*       2.1000000000E+03               0
GRID*               1256               03.0000000000E+02-1.000000000E+03+
*       1.5000000000E+03               0
GRID*               1257               0-6.590283874E-12-1.000000000E+03+
*       1.6200000000E+04               0
GRID*               1258               0-4.945832188E-12-1.000000000E+03+
*       1.5000000000E+04               0
GRID*               1259               0-1.337596700E-12-1.000000000E+03+
*       1.5600000000E+04               0
GRID*               1260               09.2370555649E-14-1.000000000E+03+
*       1.3200000000E+04               0
GRID*               1261               01.2398970739E-12-1.000000000E+03+
*       1.3800000000E+04               0
GRID*               1262               05.9507954120E-13-1.000000000E+03+
*       1.4400000000E+04               0
GRID*               1263               0-1.573852160E-12-1.000000000E+03+
*       1.0800000000E+04               0
GRID*               1264               0-5.499600775E-12-1.000000000E+03+
*       1.0200000000E+04               0
GRID*               1265               0-6.205937098E-12-1.000000000E+03+
*       9.0000000000E+03               0
GRID*               1266               0-1.643130076E-13-1.000000000E+03+
*       9.6000000000E+03               0
GRID*               1267               01.1723955140E-13-1.000000000E+03+
*       1.2600000000E+04               0
GRID*               1268               0-3.410605132E-13-1.000000000E+03+
*       1.2000000000E+04               0
GRID*               1269               0-4.263256415E-14-1.000000000E+03+
*       1.1400000000E+04               0
GRID*               1270               08.1712414612E-13-1.000000000E+03+
*       1.8000000000E+03               0
GRID*               1271               04.2746250983E-13-1.000000000E+03+
*       3.0000000000E+03               0
GRID*               1272               02.0801138589E-12-1.000000000E+03+
*       2.4000000000E+03               0
GRID*               1273               02.8386182294E-12-1.000000000E+03+
*       4.8000000000E+03               0
GRID*               1274               03.5527136788E-14-1.000000000E+03+
*       4.2000000000E+03               0
GRID*               1275               04.2782270604E-05-1.000000000E+03+
*       3.5999998289E+03               0
GRID*               1276               0-6.181721801E-13-1.000000000E+03+
*       6.6000000000E+03               0
GRID*               1277               0-1.361133428E-13-1.000000000E+03+
*       6.0000000000E+03               0
GRID*               1278               01.4885870314E-12-1.000000000E+03+
*       5.4000000000E+03               0
GRID*               1279               0-1.451283538E-12-1.000000000E+03+
*       8.4000000000E+03               0
GRID*               1280               0-6.714628853E-13-1.000000000E+03+
*       7.8000000000E+03               0
GRID*               1281               01.7053025658E-13-1.000000000E+03+
*       7.2000000000E+03               0
GRID*               1316               09.0000000000E+020.0000000000E+00+
*       6.0000000000E+02               0
GRID*               1317               03.0000000000E+020.0000000000E+00+
*       6.0000000000E+02               0
GRID*               1318               0-3.000000000E+020.0000000000E+00+
*       6.0000000000E+02               0
GRID*               1319               0-9.000000000E+020.0000000000E+00+
*       6.0000000000E+02               0
GRID*               1320               0-9.000000000E+020.0000000000E+00+
*       1.2000000000E+03               0
GRID*               1321               0-9.000000000E+020.0000000000E+00+
*       1.8000000000E+03               0
GRID*               1322               0-9.000000000E+020.0000000000E+00+
*       2.4000000000E+03               0
GRID*               1323               0-9.000000000E+020.0000000000E+00+
*       3.0000000000E+03               0
GRID*               1324               0-9.000000000E+020.0000000000E+00+
*       3.6000000000E+03               0
GRID*               1325               0-9.000000000E+020.0000000000E+00+
*       4.2000000000E+03               0
GRID*               1326               0-9.000000000E+020.0000000000E+00+
*       4.8000000000E+03               0
GRID*               1327               0-9.000000000E+020.0000000000E+00+
*       5.4000000000E+03               0
GRID*               1328               0-9.000000000E+020.0000000000E+00+
*       6.0000000000E+03               0
GRID*               1329               0-9.000000000E+020.0000000000E+00+
*       6.6000000000E+03               0
GRID*               1330               0-9.000000000E+020.0000000000E+00+
*       7.2000000000E+03               0
GRID*               1331               0-9.000000000E+020.0000000000E+00+
*       7.8000000000E+03               0
GRID*               1332               0-9.000000000E+020.0000000000E+00+
*       8.4000000000E+03               0
GRID*               1333               0-9.000000000E+020.0000000000E+00+
*       9.0000000000E+03               0
GRID*               1334               0-9.000000000E+020.0000000000E+00+
*       9.6000000000E+03               0
GRID*               1335               0-9.000000000E+020.0000000000E+00+
*       1.0200000000E+04               0
GRID*               1336               0-9.000000000E+020.0000000000E+00+
*       1.0800000000E+04               0
GRID*               1337               0-9.000000000E+020.0000000000E+00+
*       1.1400000000E+04               0
GRID*               1338               0-9.000000000E+020.0000000000E+00+
*       1.2000000000E+04               0
GRID*               1339               0-9.000000000E+020.0000000000E+00+
*       1.2600000000E+04               0
GRID*               1340               0-9.000000000E+020.0000000000E+00+
*       1.3200000000E+04               0
GRID*               1341               0-9.000000000E+020.0000000000E+00+
*       1.3800000000E+04               0
GRID*               1342               0-9.000000000E+020.0000000000E+00+
*       1.4400000000E+04               0
GRID*               1343               0-9.000000000E+020.0000000000E+00+
*       1.5000000000E+04               0
GRID*               1344               0-9.000000000E+020.0000000000E+00+
*       1.5600000000E+04               0
GRID*               1345               0-9.000000000E+020.0000000000E+00+
*       1.6200000000E+04               0
GRID*               1346               0-9.000000000E+020.0000000000E+00+
*       1.6800000000E+04               0
GRID*               1347               0-9.000000000E+020.0000000000E+00+
*       1.7400000000E+04               0
GRID*               1348               0-3.000000000E+020.0000000000E+00+
*       1.7400000000E+04               0
GRID*               1349               03.0000000000E+020.0000000000E+00+
*       1.7400000000E+04               0
GRID*               1350               09.0000000000E+020.0000000000E+00+
*       1.7400000000E+04               0
GRID*               1351               09.0000000000E+020.0000000000E+00+
*       1.6800000000E+04               0
GRID*               1352               09.0000000000E+020.0000000000E+00+
*       1.6200000000E+04               0
GRID*               1353               09.0000000000E+020.0000000000E+00+
*       1.5600000000E+04               0
GRID*               1354               09.0000000000E+020.0000000000E+00+
*       1.5000000000E+04               0
GRID*               1355               09.0000000000E+020.0000000000E+00+
*       1.4400000000E+04               0
GRID*               1356               09.0000000000E+020.0000000000E+00+
*       1.3800000000E+04               0
GRID*               1357               09.0000000000E+020.0000000000E+00+
*       1.3200000000E+04               0
GRID*               1358               09.0000000000E+020.0000000000E+00+
*       1.2600000000E+04               0
GRID*               1359               09.0000000000E+020.0000000000E+00+
*       1.2000000000E+04               0
GRID*               1360               09.0000000000E+020.0000000000E+00+
*       1.1400000000E+04               0
GRID*               1361               09.0000000000E+020.0000000000E+00+
*       1.0800000000E+04               0
GRID*               1362               09.0000000000E+020.0000000000E+00+
*       1.0200000000E+04               0
GRID*               1363               09.0000000000E+020.0000000000E+00+
*       9.6000000000E+03               0
GRID*               1364               09.0000000000E+020.0000000000E+00+
*       9.0000000000E+03               0
GRID*               1365               09.0000000000E+020.0000000000E+00+
*       8.4000000000E+03               0
GRID*               1366               09.0000000000E+020.0000000000E+00+
*       7.8000000000E+03               0
GRID*               1367               09.0000000000E+020.0000000000E+00+
*       7.2000000000E+03               0
GRID*               1368               09.0000000000E+020.0000000000E+00+
*       6.6000000000E+03               0
GRID*               1369               09.0000000000E+020.0000000000E+00+
*       6.0000000000E+03               0
GRID*               1370               09.0000000000E+020.0000000000E+00+
*       5.4000000000E+03               0
GRID*               1371               09.0000000000E+020.0000000000E+00+
*       4.8000000000E+03               0
GRID*               1372               09.0000000000E+020.0000000000E+00+
*       4.2000000000E+03               0
GRID*               1373               09.0000000000E+020.0000000000E+00+
*       3.6000000000E+03               0
GRID*               1374               09.0000000000E+020.0000000000E+00+
*       3.0000000000E+03               0
GRID*               1375               09.0000000000E+020.0000000000E+00+
*       2.4000000000E+03               0
GRID*               1376               09.0000000000E+020.0000000000E+00+
*       1.8000000000E+03               0
GRID*               1377               09.0000000000E+020.0000000000E+00+
*       1.2000000000E+03               0
GRID*               1378               03.0000000000E+020.0000000000E+00+
*       1.2000000000E+03               0
GRID*               1379               0-3.000000000E+020.0000000000E+00+
*       1.2000000000E+03               0
GRID*               1380               0-3.000000000E+020.0000000000E+00+
*       1.8000000000E+03               0
GRID*               1381               0-3.000000000E+020.0000000000E+00+
*       2.4000000000E+03               0
GRID*               1382               0-3.000000000E+020.0000000000E+00+
*       3.0000000000E+03               0
GRID*               1383               0-3.000000000E+020.0000000000E+00+
*       3.6000000000E+03               0
GRID*               1384               0-3.000000000E+020.0000000000E+00+
*       4.2000000000E+03               0
GRID*               1385               0-3.000000000E+020.0000000000E+00+
*       4.8000000000E+03               0
GRID*               1386               0-3.000000000E+020.0000000000E+00+
*       5.4000000000E+03               0
GRID*               1387               0-3.000000000E+020.0000000000E+00+
*       6.0000000000E+03               0
GRID*               1388               0-3.000000000E+020.0000000000E+00+
*       6.6000000000E+03               0
GRID*               1389               0-3.000000000E+020.0000000000E+00+
*       7.2000000000E+03               0
GRID*               1390               0-3.000000000E+020.0000000000E+00+
*       7.8000000000E+03               0
GRID*               1391               0-3.000000000E+020.0000000000E+00+
*       8.4000000000E+03               0
GRID*               1392               0-3.000000000E+020.0000000000E+00+
*       9.0000000000E+03               0
GRID*               1393               0-3.000000000E+020.0000000000E+00+
*       9.6000000000E+03               0
GRID*               1394               0-3.000000000E+020.0000000000E+00+
*       1.0200000000E+04               0
GRID*               1395               0-3.000000000E+020.0000000000E+00+
*       1.0800000000E+04               0
GRID*               1396               0-3.000000000E+020.0000000000E+00+
*       1.1400000000E+04               0
GRID*               1397               0-3.000000000E+020.0000000000E+00+
*       1.2000000000E+04               0
GRID*               1398               0-3.000000000E+020.0000000000E+00+
*       1.2600000000E+04               0
GRID*               1399               0-3.000000000E+020.0000000000E+00+
*       1.3200000000E+04               0
GRID*               1400               0-3.000000000E+020.0000000000E+00+
*       1.3800000000E+04               0
GRID*               1401               0-3.000000000E+020.0000000000E+00+
*       1.4400000000E+04               0
GRID*               1402               0-3.000000000E+020.0000000000E+00+
*       1.5000000000E+04               0
GRID*               1403               0-3.000000000E+020.0000000000E+00+
*       1.5600000000E+04               0
GRID*               1404               0-3.000000000E+020.0000000000E+00+
*       1.6200000000E+04               0
GRID*               1405               0-3.000000000E+020.0000000000E+00+
*       1.6800000000E+04               0
GRID*               1406               03.0000000000E+020.0000000000E+00+
*       1.6800000000E+04               0
GRID*               1407               03.0000000000E+020.0000000000E+00+
*       1.6200000000E+04               0
GRID*               1408               03.0000000000E+020.0000000000E+00+
*       1.5600000000E+04               0
GRID*               1409               03.0000000000E+020.0000000000E+00+
*       1.5000000000E+04               0
GRID*               1410               03.0000000000E+020.0000000000E+00+
*       1.4400000000E+04               0
GRID*               1411               03.0000000000E+020.0000000000E+00+
*       1.3800000000E+04               0
GRID*               1412               03.0000000000E+020.0000000000E+00+
*       1.3200000000E+04               0
GRID*               1413               03.0000000000E+020.0000000000E+00+
*       1.2600000000E+04               0
GRID*               1414               03.0000000000E+020.0000000000E+00+
*       1.2000000000E+04               0
GRID*               1415               03.0000000000E+020.0000000000E+00+
*       1.1400000000E+04               0
GRID*               1416               03.0000000000E+020.0000000000E+00+
*       1.0800000000E+04               0
GRID*               1417               03.0000000000E+020.0000000000E+00+
*       1.0200000000E+04               0
GRID*               1418               03.0000000000E+020.0000000000E+00+
*       9.6000000000E+03               0
GRID*               1419               03.0000000000E+020.0000000000E+00+
*       9.0000000000E+03               0
GRID*               1420               03.0000000000E+020.0000000000E+00+
*       8.4000000000E+03               0
GRID*               1421               03.0000000000E+020.0000000000E+00+
*       7.8000000000E+03               0
GRID*               1422               03.0000000000E+020.0000000000E+00+
*       7.2000000000E+03               0
GRID*               1423               03.0000000000E+020.0000000000E+00+
*       6.6000000000E+03               0
GRID*               1424               03.0000000000E+020.0000000000E+00+
*       6.0000000000E+03               0
GRID*               1425               03.0000000000E+020.0000000000E+00+
*       5.4000000000E+03               0
GRID*               1426               03.0000000000E+020.0000000000E+00+
*       4.8000000000E+03               0
GRID*               1427               03.0000000000E+020.0000000000E+00+
*       4.2000000000E+03               0
GRID*               1428               03.0000000000E+020.0000000000E+00+
*       3.6000000000E+03               0
GRID*               1429               03.0000000000E+020.0000000000E+00+
*       3.0000000000E+03               0
GRID*               1430               03.0000000000E+020.0000000000E+00+
*       2.4000000000E+03               0
GRID*               1431               03.0000000000E+020.0000000000E+00+
*       1.8000000000E+03               0
GRID*               1432               01.2000000000E+030.0000000000E+00+
*       6.0000000000E+02               0
GRID*               1433               09.0000000000E+020.0000000000E+00+
*       3.0000000000E+02               0
GRID*               1434               03.0000000000E+020.0000000000E+00+
*       3.0000000000E+02               0
GRID*               1435               06.0000000000E+020.0000000000E+00+
*       6.0000000000E+02               0
GRID*               1436               0-3.000000000E+020.0000000000E+00+
*       3.0000000000E+02               0
GRID*               1437               01.9184653866E-130.0000000000E+00+
*       6.0000000000E+02               0
GRID*               1438               0-9.000000000E+020.0000000000E+00+
*       3.0000000000E+02               0
GRID*               1439               0-6.000000000E+020.0000000000E+00+
*       6.0000000000E+02               0
GRID*               1440               0-1.200000000E+030.0000000000E+00+
*       6.0000000000E+02               0
GRID*               1441               0-1.200000000E+030.0000000000E+00+
*       1.2000000000E+03               0
GRID*               1442               0-9.000000000E+020.0000000000E+00+
*       9.0000000000E+02               0
GRID*               1443               0-1.200000000E+030.0000000000E+00+
*       1.8000000000E+03               0
GRID*               1444               0-9.000000000E+020.0000000000E+00+
*       1.5000000000E+03               0
GRID*               1445               0-1.200000000E+030.0000000000E+00+
*       2.4000000000E+03               0
GRID*               1446               0-9.000000000E+020.0000000000E+00+
*       2.1000000000E+03               0
GRID*               1447               0-1.200000000E+030.0000000000E+00+
*       3.0000000000E+03               0
GRID*               1448               0-9.000000000E+020.0000000000E+00+
*       2.7000000000E+03               0
GRID*               1449               0-1.200000000E+030.0000000000E+00+
*       3.6000000000E+03               0
GRID*               1450               0-9.000000000E+020.0000000000E+00+
*       3.3000000000E+03               0
GRID*               1451               0-1.200000000E+030.0000000000E+00+
*       4.2000000000E+03               0
GRID*               1452               0-9.000000000E+020.0000000000E+00+
*       3.9000000000E+03               0
GRID*               1453               0-1.200000000E+030.0000000000E+00+
*       4.8000000000E+03               0
GRID*               1454               0-9.000000000E+020.0000000000E+00+
*       4.5000000000E+03               0
GRID*               1455               0-1.200000000E+030.0000000000E+00+
*       5.4000000000E+03               0
GRID*               1456               0-9.000000000E+020.0000000000E+00+
*       5.1000000000E+03               0
GRID*               1457               0-1.200000000E+030.0000000000E+00+
*       6.0000000000E+03               0
GRID*               1458               0-9.000000000E+020.0000000000E+00+
*       5.7000000000E+03               0
GRID*               1459               0-1.200000000E+030.0000000000E+00+
*       6.6000000000E+03               0
GRID*               1460               0-9.000000000E+020.0000000000E+00+
*       6.3000000000E+03               0
GRID*               1461               0-1.200000000E+030.0000000000E+00+
*       7.2000000000E+03               0
GRID*               1462               0-9.000000000E+020.0000000000E+00+
*       6.9000000000E+03               0
GRID*               1463               0-1.200000000E+030.0000000000E+00+
*       7.8000000000E+03               0
GRID*               1464               0-9.000000000E+020.0000000000E+00+
*       7.5000000000E+03               0
GRID*               1465               0-1.200000000E+030.0000000000E+00+
*       8.4000000000E+03               0
GRID*               1466               0-9.000000000E+020.0000000000E+00+
*       8.1000000000E+03               0
GRID*               1467               0-1.200000000E+030.0000000000E+00+
*       9.0000000000E+03               0
GRID*               1468               0-9.000000000E+020.0000000000E+00+
*       8.7000000000E+03               0
GRID*               1469               0-1.200000000E+030.0000000000E+00+
*       9.6000000000E+03               0
GRID*               1470               0-9.000000000E+020.0000000000E+00+
*       9.3000000000E+03               0
GRID*               1471               0-1.200000000E+030.0000000000E+00+
*       1.0200000000E+04               0
GRID*               1472               0-9.000000000E+020.0000000000E+00+
*       9.9000000000E+03               0
GRID*               1473               0-1.200000000E+030.0000000000E+00+
*       1.0800000000E+04               0
GRID*               1474               0-9.000000000E+020.0000000000E+00+
*       1.0500000000E+04               0
GRID*               1475               0-1.200000000E+030.0000000000E+00+
*       1.1400000000E+04               0
GRID*               1476               0-9.000000000E+020.0000000000E+00+
*       1.1100000000E+04               0
GRID*               1477               0-1.200000000E+030.0000000000E+00+
*       1.2000000000E+04               0
GRID*               1478               0-9.000000000E+020.0000000000E+00+
*       1.1700000000E+04               0
GRID*               1479               0-1.200000000E+030.0000000000E+00+
*       1.2600000000E+04               0
GRID*               1480               0-9.000000000E+020.0000000000E+00+
*       1.2300000000E+04               0
GRID*               1481               0-1.200000000E+030.0000000000E+00+
*       1.3200000000E+04               0
GRID*               1482               0-9.000000000E+020.0000000000E+00+
*       1.2900000000E+04               0
GRID*               1483               0-1.200000000E+030.0000000000E+00+
*       1.3800000000E+04               0
GRID*               1484               0-9.000000000E+020.0000000000E+00+
*       1.3500000000E+04               0
GRID*               1485               0-1.200000000E+030.0000000000E+00+
*       1.4400000000E+04               0
GRID*               1486               0-9.000000000E+020.0000000000E+00+
*       1.4100000000E+04               0
GRID*               1487               0-1.200000000E+030.0000000000E+00+
*       1.5000000000E+04               0
GRID*               1488               0-9.000000000E+020.0000000000E+00+
*       1.4700000000E+04               0
GRID*               1489               0-1.200000000E+030.0000000000E+00+
*       1.5600000000E+04               0
GRID*               1490               0-9.000000000E+020.0000000000E+00+
*       1.5300000000E+04               0
GRID*               1491               0-1.200000000E+030.0000000000E+00+
*       1.6200000000E+04               0
GRID*               1492               0-9.000000000E+020.0000000000E+00+
*       1.5900000000E+04               0
GRID*               1493               0-1.200000000E+030.0000000000E+00+
*       1.6800000000E+04               0
GRID*               1494               0-9.000000000E+020.0000000000E+00+
*       1.6500000000E+04               0
GRID*               1495               0-1.200000000E+030.0000000000E+00+
*       1.7400000000E+04               0
GRID*               1496               0-9.000000000E+020.0000000000E+00+
*       1.7100000000E+04               0
GRID*               1497               0-9.000000000E+020.0000000000E+00+
*       1.7700000000E+04               0
GRID*               1498               0-3.000000000E+020.0000000000E+00+
*       1.7700000000E+04               0
GRID*               1499               0-6.000000000E+020.0000000000E+00+
*       1.7400000000E+04               0
GRID*               1500               03.0000000000E+020.0000000000E+00+
*       1.7700000000E+04               0
GRID*               1501               0-1.918465387E-130.0000000000E+00+
*       1.7400000000E+04               0
GRID*               1502               09.0000000000E+020.0000000000E+00+
*       1.7700000000E+04               0
GRID*               1503               06.0000000000E+020.0000000000E+00+
*       1.7400000000E+04               0
GRID*               1504               01.2000000000E+030.0000000000E+00+
*       1.7400000000E+04               0
GRID*               1505               01.2000000000E+030.0000000000E+00+
*       1.6800000000E+04               0
GRID*               1506               09.0000000000E+020.0000000000E+00+
*       1.7100000000E+04               0
GRID*               1507               01.2000000000E+030.0000000000E+00+
*       1.6200000000E+04               0
GRID*               1508               09.0000000000E+020.0000000000E+00+
*       1.6500000000E+04               0
GRID*               1509               01.2000000000E+030.0000000000E+00+
*       1.5600000000E+04               0
GRID*               1510               09.0000000000E+020.0000000000E+00+
*       1.5900000000E+04               0
GRID*               1511               01.2000000000E+030.0000000000E+00+
*       1.5000000000E+04               0
GRID*               1512               09.0000000000E+020.0000000000E+00+
*       1.5300000000E+04               0
GRID*               1513               01.2000000000E+030.0000000000E+00+
*       1.4400000000E+04               0
GRID*               1514               09.0000000000E+020.0000000000E+00+
*       1.4700000000E+04               0
GRID*               1515               01.2000000000E+030.0000000000E+00+
*       1.3800000000E+04               0
GRID*               1516               09.0000000000E+020.0000000000E+00+
*       1.4100000000E+04               0
GRID*               1517               01.2000000000E+030.0000000000E+00+
*       1.3200000000E+04               0
GRID*               1518               09.0000000000E+020.0000000000E+00+
*       1.3500000000E+04               0
GRID*               1519               01.2000000000E+030.0000000000E+00+
*       1.2600000000E+04               0
GRID*               1520               09.0000000000E+020.0000000000E+00+
*       1.2900000000E+04               0
GRID*               1521               01.2000000000E+030.0000000000E+00+
*       1.2000000000E+04               0
GRID*               1522               09.0000000000E+020.0000000000E+00+
*       1.2300000000E+04               0
GRID*               1523               01.2000000000E+030.0000000000E+00+
*       1.1400000000E+04               0
GRID*               1524               09.0000000000E+020.0000000000E+00+
*       1.1700000000E+04               0
GRID*               1525               01.2000000000E+030.0000000000E+00+
*       1.0800000000E+04               0
GRID*               1526               09.0000000000E+020.0000000000E+00+
*       1.1100000000E+04               0
GRID*               1527               01.2000000000E+030.0000000000E+00+
*       1.0200000000E+04               0
GRID*               1528               09.0000000000E+020.0000000000E+00+
*       1.0500000000E+04               0
GRID*               1529               01.2000000000E+030.0000000000E+00+
*       9.6000000000E+03               0
GRID*               1530               09.0000000000E+020.0000000000E+00+
*       9.9000000000E+03               0
GRID*               1531               01.2000000000E+030.0000000000E+00+
*       9.0000000000E+03               0
GRID*               1532               09.0000000000E+020.0000000000E+00+
*       9.3000000000E+03               0
GRID*               1533               01.2000000000E+030.0000000000E+00+
*       8.4000000000E+03               0
GRID*               1534               09.0000000000E+020.0000000000E+00+
*       8.7000000000E+03               0
GRID*               1535               01.2000000000E+030.0000000000E+00+
*       7.8000000000E+03               0
GRID*               1536               09.0000000000E+020.0000000000E+00+
*       8.1000000000E+03               0
GRID*               1537               01.2000000000E+030.0000000000E+00+
*       7.2000000000E+03               0
GRID*               1538               09.0000000000E+020.0000000000E+00+
*       7.5000000000E+03               0
GRID*               1539               01.2000000000E+030.0000000000E+00+
*       6.6000000000E+03               0
GRID*               1540               09.0000000000E+020.0000000000E+00+
*       6.9000000000E+03               0
GRID*               1541               01.2000000000E+030.0000000000E+00+
*       6.0000000000E+03               0
GRID*               1542               09.0000000000E+020.0000000000E+00+
*       6.3000000000E+03               0
GRID*               1543               01.2000000000E+030.0000000000E+00+
*       5.4000000000E+03               0
GRID*               1544               09.0000000000E+020.0000000000E+00+
*       5.7000000000E+03               0
GRID*               1545               01.2000000000E+030.0000000000E+00+
*       4.8000000000E+03               0
GRID*               1546               09.0000000000E+020.0000000000E+00+
*       5.1000000000E+03               0
GRID*               1547               01.2000000000E+030.0000000000E+00+
*       4.2000000000E+03               0
GRID*               1548               09.0000000000E+020.0000000000E+00+
*       4.5000000000E+03               0
GRID*               1549               01.2000000000E+030.0000000000E+00+
*       3.6000000000E+03               0
GRID*               1550               09.0000000000E+020.0000000000E+00+
*       3.9000000000E+03               0
GRID*               1551               01.2000000000E+030.0000000000E+00+
*       3.0000000000E+03               0
GRID*               1552               09.0000000000E+020.0000000000E+00+
*       3.3000000000E+03               0
GRID*               1553               01.2000000000E+030.0000000000E+00+
*       2.4000000000E+03               0
GRID*               1554               09.0000000000E+020.0000000000E+00+
*       2.7000000000E+03               0
GRID*               1555               01.2000000000E+030.0000000000E+00+
*       1.8000000000E+03               0
GRID*               1556               09.0000000000E+020.0000000000E+00+
*       2.1000000000E+03               0
GRID*               1557               01.2000000000E+030.0000000000E+00+
*       1.2000000000E+03               0
GRID*               1558               09.0000000000E+020.0000000000E+00+
*       1.5000000000E+03               0
GRID*               1559               09.0000000000E+020.0000000000E+00+
*       9.0000000000E+02               0
GRID*               1560               06.0000000000E+020.0000000000E+00+
*       1.2000000000E+03               0
GRID*               1561               03.0000000000E+020.0000000000E+00+
*       9.0000000000E+02               0
GRID*               1562               0-3.000000000E+020.0000000000E+00+
*       9.0000000000E+02               0
GRID*               1563               0-1.421085472E-140.0000000000E+00+
*       1.2000000000E+03               0
GRID*               1564               0-6.000000000E+020.0000000000E+00+
*       1.2000000000E+03               0
GRID*               1565               0-6.000000000E+020.0000000000E+00+
*       1.8000000000E+03               0
GRID*               1566               0-3.000000000E+020.0000000000E+00+
*       1.5000000000E+03               0
GRID*               1567               0-6.000000000E+020.0000000000E+00+
*       2.4000000000E+03               0
GRID*               1568               0-3.000000000E+020.0000000000E+00+
*       2.1000000000E+03               0
GRID*               1569               0-6.000000000E+020.0000000000E+00+
*       3.0000000000E+03               0
GRID*               1570               0-3.000000000E+020.0000000000E+00+
*       2.7000000000E+03               0
GRID*               1571               0-6.000000000E+020.0000000000E+00+
*       3.6000000000E+03               0
GRID*               1572               0-3.000000000E+020.0000000000E+00+
*       3.3000000000E+03               0
GRID*               1573               0-6.000000000E+020.0000000000E+00+
*       4.2000000000E+03               0
GRID*               1574               0-3.000000000E+020.0000000000E+00+
*       3.9000000000E+03               0
GRID*               1575               0-6.000000000E+020.0000000000E+00+
*       4.8000000000E+03               0
GRID*               1576               0-3.000000000E+020.0000000000E+00+
*       4.5000000000E+03               0
GRID*               1577               0-6.000000000E+020.0000000000E+00+
*       5.4000000000E+03               0
GRID*               1578               0-3.000000000E+020.0000000000E+00+
*       5.1000000000E+03               0
GRID*               1579               0-6.000000000E+020.0000000000E+00+
*       6.0000000000E+03               0
GRID*               1580               0-3.000000000E+020.0000000000E+00+
*       5.7000000000E+03               0
GRID*               1581               0-6.000000000E+020.0000000000E+00+
*       6.6000000000E+03               0
GRID*               1582               0-3.000000000E+020.0000000000E+00+
*       6.3000000000E+03               0
GRID*               1583               0-6.000000000E+020.0000000000E+00+
*       7.2000000000E+03               0
GRID*               1584               0-3.000000000E+020.0000000000E+00+
*       6.9000000000E+03               0
GRID*               1585               0-6.000000000E+020.0000000000E+00+
*       7.8000000000E+03               0
GRID*               1586               0-3.000000000E+020.0000000000E+00+
*       7.5000000000E+03               0
GRID*               1587               0-6.000000000E+020.0000000000E+00+
*       8.4000000000E+03               0
GRID*               1588               0-3.000000000E+020.0000000000E+00+
*       8.1000000000E+03               0
GRID*               1589               0-6.000000000E+020.0000000000E+00+
*       9.0000000000E+03               0
GRID*               1590               0-3.000000000E+020.0000000000E+00+
*       8.7000000000E+03               0
GRID*               1591               0-6.000000000E+020.0000000000E+00+
*       9.6000000000E+03               0
GRID*               1592               0-3.000000000E+020.0000000000E+00+
*       9.3000000000E+03               0
GRID*               1593               0-6.000000000E+020.0000000000E+00+
*       1.0200000000E+04               0
GRID*               1594               0-3.000000000E+020.0000000000E+00+
*       9.9000000000E+03               0
GRID*               1595               0-6.000000000E+020.0000000000E+00+
*       1.0800000000E+04               0
GRID*               1596               0-3.000000000E+020.0000000000E+00+
*       1.0500000000E+04               0
GRID*               1597               0-6.000000000E+020.0000000000E+00+
*       1.1400000000E+04               0
GRID*               1598               0-3.000000000E+020.0000000000E+00+
*       1.1100000000E+04               0
GRID*               1599               0-6.000000000E+020.0000000000E+00+
*       1.2000000000E+04               0
GRID*               1600               0-3.000000000E+020.0000000000E+00+
*       1.1700000000E+04               0
GRID*               1601               0-6.000000000E+020.0000000000E+00+
*       1.2600000000E+04               0
GRID*               1602               0-3.000000000E+020.0000000000E+00+
*       1.2300000000E+04               0
GRID*               1603               0-6.000000000E+020.0000000000E+00+
*       1.3200000000E+04               0
GRID*               1604               0-3.000000000E+020.0000000000E+00+
*       1.2900000000E+04               0
GRID*               1605               0-6.000000000E+020.0000000000E+00+
*       1.3800000000E+04               0
GRID*               1606               0-3.000000000E+020.0000000000E+00+
*       1.3500000000E+04               0
GRID*               1607               0-6.000000000E+020.0000000000E+00+
*       1.4400000000E+04               0
GRID*               1608               0-3.000000000E+020.0000000000E+00+
*       1.4100000000E+04               0
GRID*               1609               0-6.000000000E+020.0000000000E+00+
*       1.5000000000E+04               0
GRID*               1610               0-3.000000000E+020.0000000000E+00+
*       1.4700000000E+04               0
GRID*               1611               0-6.000000000E+020.0000000000E+00+
*       1.5600000000E+04               0
GRID*               1612               0-3.000000000E+020.0000000000E+00+
*       1.5300000000E+04               0
GRID*               1613               0-6.000000000E+020.0000000000E+00+
*       1.6200000000E+04               0
GRID*               1614               0-3.000000000E+020.0000000000E+00+
*       1.5900000000E+04               0
GRID*               1615               0-6.000000000E+020.0000000000E+00+
*       1.6800000000E+04               0
GRID*               1616               0-3.000000000E+020.0000000000E+00+
*       1.6500000000E+04               0
GRID*               1617               0-3.000000000E+020.0000000000E+00+
*       1.7100000000E+04               0
GRID*               1618               03.0000000000E+020.0000000000E+00+
*       1.7100000000E+04               0
GRID*               1619               01.4210854715E-140.0000000000E+00+
*       1.6800000000E+04               0
GRID*               1620               06.0000000000E+020.0000000000E+00+
*       1.6800000000E+04               0
GRID*               1621               06.0000000000E+020.0000000000E+00+
*       1.6200000000E+04               0
GRID*               1622               03.0000000000E+020.0000000000E+00+
*       1.6500000000E+04               0
GRID*               1623               06.0000000000E+020.0000000000E+00+
*       1.5600000000E+04               0
GRID*               1624               03.0000000000E+020.0000000000E+00+
*       1.5900000000E+04               0
GRID*               1625               06.0000000000E+020.0000000000E+00+
*       1.5000000000E+04               0
GRID*               1626               03.0000000000E+020.0000000000E+00+
*       1.5300000000E+04               0
GRID*               1627               06.0000000000E+020.0000000000E+00+
*       1.4400000000E+04               0
GRID*               1628               03.0000000000E+020.0000000000E+00+
*       1.4700000000E+04               0
GRID*               1629               06.0000000000E+020.0000000000E+00+
*       1.3800000000E+04               0
GRID*               1630               03.0000000000E+020.0000000000E+00+
*       1.4100000000E+04               0
GRID*               1631               06.0000000000E+020.0000000000E+00+
*       1.3200000000E+04               0
GRID*               1632               03.0000000000E+020.0000000000E+00+
*       1.3500000000E+04               0
GRID*               1633               06.0000000000E+020.0000000000E+00+
*       1.2600000000E+04               0
GRID*               1634               03.0000000000E+020.0000000000E+00+
*       1.2900000000E+04               0
GRID*               1635               06.0000000000E+020.0000000000E+00+
*       1.2000000000E+04               0
GRID*               1636               03.0000000000E+020.0000000000E+00+
*       1.2300000000E+04               0
GRID*               1637               06.0000000000E+020.0000000000E+00+
*       1.1400000000E+04               0
GRID*               1638               03.0000000000E+020.0000000000E+00+
*       1.1700000000E+04               0
GRID*               1639               06.0000000000E+020.0000000000E+00+
*       1.0800000000E+04               0
GRID*               1640               03.0000000000E+020.0000000000E+00+
*       1.1100000000E+04               0
GRID*               1641               06.0000000000E+020.0000000000E+00+
*       1.0200000000E+04               0
GRID*               1642               03.0000000000E+020.0000000000E+00+
*       1.0500000000E+04               0
GRID*               1643               06.0000000000E+020.0000000000E+00+
*       9.6000000000E+03               0
GRID*               1644               03.0000000000E+020.0000000000E+00+
*       9.9000000000E+03               0
GRID*               1645               06.0000000000E+020.0000000000E+00+
*       9.0000000000E+03               0
GRID*               1646               03.0000000000E+020.0000000000E+00+
*       9.3000000000E+03               0
GRID*               1647               06.0000000000E+020.0000000000E+00+
*       8.4000000000E+03               0
GRID*               1648               03.0000000000E+020.0000000000E+00+
*       8.7000000000E+03               0
GRID*               1649               06.0000000000E+020.0000000000E+00+
*       7.8000000000E+03               0
GRID*               1650               03.0000000000E+020.0000000000E+00+
*       8.1000000000E+03               0
GRID*               1651               06.0000000000E+020.0000000000E+00+
*       7.2000000000E+03               0
GRID*               1652               03.0000000000E+020.0000000000E+00+
*       7.5000000000E+03               0
GRID*               1653               06.0000000000E+020.0000000000E+00+
*       6.6000000000E+03               0
GRID*               1654               03.0000000000E+020.0000000000E+00+
*       6.9000000000E+03               0
GRID*               1655               06.0000000000E+020.0000000000E+00+
*       6.0000000000E+03               0
GRID*               1656               03.0000000000E+020.0000000000E+00+
*       6.3000000000E+03               0
GRID*               1657               06.0000000000E+020.0000000000E+00+
*       5.4000000000E+03               0
GRID*               1658               03.0000000000E+020.0000000000E+00+
*       5.7000000000E+03               0
GRID*               1659               06.0000000000E+020.0000000000E+00+
*       4.8000000000E+03               0
GRID*               1660               03.0000000000E+020.0000000000E+00+
*       5.1000000000E+03               0
GRID*               1661               06.0000000000E+020.0000000000E+00+
*       4.2000000000E+03               0
GRID*               1662               03.0000000000E+020.0000000000E+00+
*       4.5000000000E+03               0
GRID*               1663               06.0000000000E+020.0000000000E+00+
*       3.6000000000E+03               0
GRID*               1664               03.0000000000E+020.0000000000E+00+
*       3.9000000000E+03               0
GRID*               1665               06.0000000000E+020.0000000000E+00+
*       3.0000000000E+03               0
GRID*               1666               03.0000000000E+020.0000000000E+00+
*       3.3000000000E+03               0
GRID*               1667               06.0000000000E+020.0000000000E+00+
*       2.4000000000E+03               0
GRID*               1668               03.0000000000E+020.0000000000E+00+
*       2.7000000000E+03               0
GRID*               1669               06.0000000000E+020.0000000000E+00+
*       1.8000000000E+03               0
GRID*               1670               03.0000000000E+020.0000000000E+00+
*       2.1000000000E+03               0
GRID*               1671               03.0000000000E+020.0000000000E+00+
*       1.5000000000E+03               0
GRID*               1672               0-3.552713679E-140.0000000000E+00+
*       1.6200000000E+04               0
GRID*               1673               00.0000000000E+000.0000000000E+00+
*       1.5000000000E+04               0
GRID*               1674               0-5.950795412E-140.0000000000E+00+
*       1.5600000000E+04               0
GRID*               1675               0-1.421085472E-140.0000000000E+00+
*       1.3200000000E+04               0
GRID*               1676               03.5527136788E-140.0000000000E+00+
*       1.3800000000E+04               0
GRID*               1677               05.9507954120E-140.0000000000E+00+
*       1.4400000000E+04               0
GRID*               1678               01.4210854715E-140.0000000000E+00+
*       1.0800000000E+04               0
GRID*               1679               0-3.552713679E-140.0000000000E+00+
*       1.0200000000E+04               0
GRID*               1680               00.0000000000E+000.0000000000E+00+
*       9.0000000000E+03               0
GRID*               1681               0-5.950795412E-140.0000000000E+00+
*       9.6000000000E+03               0
GRID*               1682               01.9184653866E-130.0000000000E+00+
*       1.2600000000E+04               0
GRID*               1683               00.0000000000E+000.0000000000E+00+
*       1.2000000000E+04               0
GRID*               1684               0-1.918465387E-130.0000000000E+00+
*       1.1400000000E+04               0
GRID*               1685               03.5527136788E-140.0000000000E+00+
*       1.8000000000E+03               0
GRID*               1686               0-1.732587407E-130.0000000000E+00+
*       3.0000000000E+03               0
GRID*               1687               0-1.643130076E-130.0000000000E+00+
*       2.4000000000E+03               0
GRID*               1688               0-1.456612608E-130.0000000000E+00+
*       4.8000000000E+03               0
GRID*               1689               0-3.552713679E-140.0000000000E+00+
*       4.2000000000E+03               0
GRID*               1690               01.6875389974E-140.0000000000E+00+
*       3.6000000000E+03               0
GRID*               1691               0-1.705302566E-130.0000000000E+00+
*       6.6000000000E+03               0
GRID*               1692               02.6423307986E-140.0000000000E+00+
*       6.0000000000E+03               0
GRID*               1693               02.4868995752E-140.0000000000E+00+
*       5.4000000000E+03               0
GRID*               1694               05.9507954120E-140.0000000000E+00+
*       8.4000000000E+03               0
GRID*               1695               04.1211478674E-130.0000000000E+00+
*       7.8000000000E+03               0
GRID*               1696               02.1671553441E-130.0000000000E+00+
*       7.2000000000E+03               0
GRID*                784               0-1.500000000E+03-5.000000000E+02+
*       6.0000000000E+02               0
GRID*                785               0-1.500000000E+03-5.000000000E+02+
*       1.2000000000E+03               0
GRID*                786               0-1.500000000E+03-5.000000000E+02+
*       1.8000000000E+03               0
GRID*                787               0-1.500000000E+03-5.000000000E+02+
*       2.4000000000E+03               0
GRID*                788               0-1.500000000E+03-5.000000000E+02+
*       3.0000000000E+03               0
GRID*                789               0-1.500000000E+03-5.000000000E+02+
*       3.6000000000E+03               0
GRID*                790               0-1.500000000E+03-5.000000000E+02+
*       4.2000000000E+03               0
GRID*                791               0-1.500000000E+03-5.000000000E+02+
*       4.8000000000E+03               0
GRID*                792               0-1.500000000E+03-5.000000000E+02+
*       5.4000000000E+03               0
GRID*                793               0-1.500000000E+03-5.000000000E+02+
*       6.0000000000E+03               0
GRID*                794               0-1.500000000E+03-5.000000000E+02+
*       6.6000000000E+03               0
GRID*                795               0-1.500000000E+03-5.000000000E+02+
*       7.2000000000E+03               0
GRID*                796               0-1.500000000E+03-5.000000000E+02+
*       7.8000000000E+03               0
GRID*                797               0-1.500000000E+03-5.000000000E+02+
*       8.4000000000E+03               0
GRID*                798               0-1.500000000E+03-5.000000000E+02+
*       9.0000000000E+03               0
GRID*                799               0-1.500000000E+03-5.000000000E+02+
*       9.6000000000E+03               0
GRID*                800               0-1.500000000E+03-5.000000000E+02+
*       1.0200000000E+04               0
GRID*                801               0-1.500000000E+03-5.000000000E+02+
*       1.0800000000E+04               0
GRID*                802               0-1.500000000E+03-5.000000000E+02+
*       1.1400000000E+04               0
GRID*                803               0-1.500000000E+03-5.000000000E+02+
*       1.2000000000E+04               0
GRID*                804               0-1.500000000E+03-5.000000000E+02+
*       1.2600000000E+04               0
GRID*                805               0-1.500000000E+03-5.000000000E+02+
*       1.3200000000E+04               0
GRID*                806               0-1.500000000E+03-5.000000000E+02+
*       1.3800000000E+04               0
GRID*                807               0-1.500000000E+03-5.000000000E+02+
*       1.4400000000E+04               0
GRID*                808               0-1.500000000E+03-5.000000000E+02+
*       1.5000000000E+04               0
GRID*                809               0-1.500000000E+03-5.000000000E+02+
*       1.5600000000E+04               0
GRID*                810               0-1.500000000E+03-5.000000000E+02+
*       1.6200000000E+04               0
GRID*                811               0-1.500000000E+03-5.000000000E+02+
*       1.6800000000E+04               0
GRID*                812               0-1.500000000E+03-5.000000000E+02+
*       1.7400000000E+04               0
GRID*                813               0-1.500000000E+03-5.000000000E+02+
*       3.0000000000E+02               0
GRID*                814               0-1.500000000E+03-2.500000000E+02+
*       6.0000000000E+02               0
GRID*                815               0-1.500000000E+03-7.500000000E+02+
*       6.0000000000E+02               0
GRID*                816               0-1.500000000E+03-7.500000000E+02+
*       1.2000000000E+03               0
GRID*                817               0-1.500000000E+03-5.000000000E+02+
*       9.0000000000E+02               0
GRID*                818               0-1.500000000E+03-7.500000000E+02+
*       1.8000000000E+03               0
GRID*                819               0-1.500000000E+03-5.000000000E+02+
*       1.5000000000E+03               0
GRID*                820               0-1.500000000E+03-7.500000000E+02+
*       2.4000000000E+03               0
GRID*                821               0-1.500000000E+03-5.000000000E+02+
*       2.1000000000E+03               0
GRID*                822               0-1.500000000E+03-7.500000000E+02+
*       3.0000000000E+03               0
GRID*                823               0-1.500000000E+03-5.000000000E+02+
*       2.7000000000E+03               0
GRID*                824               0-1.500000000E+03-7.500000000E+02+
*       3.6000000000E+03               0
GRID*                825               0-1.500000000E+03-5.000000000E+02+
*       3.3000000000E+03               0
GRID*                826               0-1.500000000E+03-7.500000000E+02+
*       4.2000000000E+03               0
GRID*                827               0-1.500000000E+03-5.000000000E+02+
*       3.9000000000E+03               0
GRID*                828               0-1.500000000E+03-7.500000000E+02+
*       4.8000000000E+03               0
GRID*                829               0-1.500000000E+03-5.000000000E+02+
*       4.5000000000E+03               0
GRID*                830               0-1.500000000E+03-7.500000000E+02+
*       5.4000000000E+03               0
GRID*                831               0-1.500000000E+03-5.000000000E+02+
*       5.1000000000E+03               0
GRID*                832               0-1.500000000E+03-7.500000000E+02+
*       6.0000000000E+03               0
GRID*                833               0-1.500000000E+03-5.000000000E+02+
*       5.7000000000E+03               0
GRID*                834               0-1.500000000E+03-7.500000000E+02+
*       6.6000000000E+03               0
GRID*                835               0-1.500000000E+03-5.000000000E+02+
*       6.3000000000E+03               0
GRID*                836               0-1.500000000E+03-7.500000000E+02+
*       7.2000000000E+03               0
GRID*                837               0-1.500000000E+03-5.000000000E+02+
*       6.9000000000E+03               0
GRID*                838               0-1.500000000E+03-7.500000000E+02+
*       7.8000000000E+03               0
GRID*                839               0-1.500000000E+03-5.000000000E+02+
*       7.5000000000E+03               0
GRID*                840               0-1.500000000E+03-7.500000000E+02+
*       8.4000000000E+03               0
GRID*                841               0-1.500000000E+03-5.000000000E+02+
*       8.1000000000E+03               0
GRID*                842               0-1.500000000E+03-7.500000000E+02+
*       9.0000000000E+03               0
GRID*                843               0-1.500000000E+03-5.000000000E+02+
*       8.7000000000E+03               0
GRID*                844               0-1.500000000E+03-7.500000000E+02+
*       9.6000000000E+03               0
GRID*                845               0-1.500000000E+03-5.000000000E+02+
*       9.3000000000E+03               0
GRID*                846               0-1.500000000E+03-7.500000000E+02+
*       1.0200000000E+04               0
GRID*                847               0-1.500000000E+03-5.000000000E+02+
*       9.9000000000E+03               0
GRID*                848               0-1.500000000E+03-7.500000000E+02+
*       1.0800000000E+04               0
GRID*                849               0-1.500000000E+03-5.000000000E+02+
*       1.0500000000E+04               0
GRID*                850               0-1.500000000E+03-7.500000000E+02+
*       1.1400000000E+04               0
GRID*                851               0-1.500000000E+03-5.000000000E+02+
*       1.1100000000E+04               0
GRID*                852               0-1.500000000E+03-7.500000000E+02+
*       1.2000000000E+04               0
GRID*                853               0-1.500000000E+03-5.000000000E+02+
*       1.1700000000E+04               0
GRID*                854               0-1.500000000E+03-7.500000000E+02+
*       1.2600000000E+04               0
GRID*                855               0-1.500000000E+03-5.000000000E+02+
*       1.2300000000E+04               0
GRID*                856               0-1.500000000E+03-7.500000000E+02+
*       1.3200000000E+04               0
GRID*                857               0-1.500000000E+03-5.000000000E+02+
*       1.2900000000E+04               0
GRID*                858               0-1.500000000E+03-7.500000000E+02+
*       1.3800000000E+04               0
GRID*                859               0-1.500000000E+03-5.000000000E+02+
*       1.3500000000E+04               0
GRID*                860               0-1.500000000E+03-7.500000000E+02+
*       1.4400000000E+04               0
GRID*                861               0-1.500000000E+03-5.000000000E+02+
*       1.4100000000E+04               0
GRID*                862               0-1.500000000E+03-7.500000000E+02+
*       1.5000000000E+04               0
GRID*                863               0-1.500000000E+03-5.000000000E+02+
*       1.4700000000E+04               0
GRID*                864               0-1.500000000E+03-7.500000000E+02+
*       1.5600000000E+04               0
GRID*                865               0-1.500000000E+03-5.000000000E+02+
*       1.5300000000E+04               0
GRID*                866               0-1.500000000E+03-7.500000000E+02+
*       1.6200000000E+04               0
GRID*                867               0-1.500000000E+03-5.000000000E+02+
*       1.5900000000E+04               0
GRID*                868               0-1.500000000E+03-7.500000000E+02+
*       1.6800000000E+04               0
GRID*                869               0-1.500000000E+03-5.000000000E+02+
*       1.6500000000E+04               0
GRID*                870               0-1.500000000E+03-7.500000000E+02+
*       1.7400000000E+04               0
GRID*                871               0-1.500000000E+03-5.000000000E+02+
*       1.7100000000E+04               0
GRID*                872               0-1.500000000E+03-5.000000000E+02+
*       1.7700000000E+04               0
GRID*                873               0-1.500000000E+03-2.500000000E+02+
*       1.7400000000E+04               0
GRID*                874               0-1.500000000E+03-2.500000000E+02+
*       1.6800000000E+04               0
GRID*                875               0-1.500000000E+03-2.500000000E+02+
*       1.6200000000E+04               0
GRID*                876               0-1.500000000E+03-2.500000000E+02+
*       1.5600000000E+04               0
GRID*                877               0-1.500000000E+03-2.500000000E+02+
*       1.5000000000E+04               0
GRID*                878               0-1.500000000E+03-2.500000000E+02+
*       1.4400000000E+04               0
GRID*                879               0-1.500000000E+03-2.500000000E+02+
*       1.3800000000E+04               0
GRID*                880               0-1.500000000E+03-2.500000000E+02+
*       1.3200000000E+04               0
GRID*                881               0-1.500000000E+03-2.500000000E+02+
*       1.2600000000E+04               0
GRID*                882               0-1.500000000E+03-2.500000000E+02+
*       1.2000000000E+04               0
GRID*                883               0-1.500000000E+03-2.500000000E+02+
*       1.1400000000E+04               0
GRID*                884               0-1.500000000E+03-2.500000000E+02+
*       1.0800000000E+04               0
GRID*                885               0-1.500000000E+03-2.500000000E+02+
*       1.0200000000E+04               0
GRID*                886               0-1.500000000E+03-2.500000000E+02+
*       9.6000000000E+03               0
GRID*                887               0-1.500000000E+03-2.500000000E+02+
*       9.0000000000E+03               0
GRID*                888               0-1.500000000E+03-2.500000000E+02+
*       8.4000000000E+03               0
GRID*                889               0-1.500000000E+03-2.500000000E+02+
*       7.8000000000E+03               0
GRID*                890               0-1.500000000E+03-2.500000000E+02+
*       7.2000000000E+03               0
GRID*                891               0-1.500000000E+03-2.500000000E+02+
*       6.6000000000E+03               0
GRID*                892               0-1.500000000E+03-2.500000000E+02+
*       6.0000000000E+03               0
GRID*                893               0-1.500000000E+03-2.500000000E+02+
*       5.4000000000E+03               0
GRID*                894               0-1.500000000E+03-2.500000000E+02+
*       4.8000000000E+03               0
GRID*                895               0-1.500000000E+03-2.500000000E+02+
*       4.2000000000E+03               0
GRID*                896               0-1.500000000E+03-2.500000000E+02+
*       3.6000000000E+03               0
GRID*                897               0-1.500000000E+03-2.500000000E+02+
*       3.0000000000E+03               0
GRID*                898               0-1.500000000E+03-2.500000000E+02+
*       2.4000000000E+03               0
GRID*                899               0-1.500000000E+03-2.500000000E+02+
*       1.8000000000E+03               0
GRID*                900               0-1.500000000E+03-2.500000000E+02+
*       1.2000000000E+03               0
GRID*               1697               01.5000000000E+03-5.000000000E+02+
*       6.0000000000E+02               0
GRID*               1698               01.5000000000E+03-5.000000000E+02+
*       1.2000000000E+03               0
GRID*               1699               01.5000000000E+03-5.000000000E+02+
*       1.8000000000E+03               0
GRID*               1700               01.5000000000E+03-5.000000000E+02+
*       2.4000000000E+03               0
GRID*               1701               01.5000000000E+03-5.000000000E+02+
*       3.0000000000E+03               0
GRID*               1702               01.5000000000E+03-5.000000000E+02+
*       3.6000000000E+03               0
GRID*               1703               01.5000000000E+03-5.000000000E+02+
*       4.2000000000E+03               0
GRID*               1704               01.5000000000E+03-5.000000000E+02+
*       4.8000000000E+03               0
GRID*               1705               01.5000000000E+03-5.000000000E+02+
*       5.4000000000E+03               0
GRID*               1706               01.5000000000E+03-5.000000000E+02+
*       6.0000000000E+03               0
GRID*               1707               01.5000000000E+03-5.000000000E+02+
*       6.6000000000E+03               0
GRID*               1708               01.5000000000E+03-5.000000000E+02+
*       7.2000000000E+03               0
GRID*               1709               01.5000000000E+03-5.000000000E+02+
*       7.8000000000E+03               0
GRID*               1710               01.5000000000E+03-5.000000000E+02+
*       8.4000000000E+03               0
GRID*               1711               01.5000000000E+03-5.000000000E+02+
*       9.0000000000E+03               0
GRID*               1712               01.5000000000E+03-5.000000000E+02+
*       9.6000000000E+03               0
GRID*               1713               01.5000000000E+03-5.000000000E+02+
*       1.0200000000E+04               0
GRID*               1714               01.5000000000E+03-5.000000000E+02+
*       1.0800000000E+04               0
GRID*               1715               01.5000000000E+03-5.000000000E+02+
*       1.1400000000E+04               0
GRID*               1716               01.5000000000E+03-5.000000000E+02+
*       1.2000000000E+04               0
GRID*               1717               01.5000000000E+03-5.000000000E+02+
*       1.2600000000E+04               0
GRID*               1718               01.5000000000E+03-5.000000000E+02+
*       1.3200000000E+04               0
GRID*               1719               01.5000000000E+03-5.000000000E+02+
*       1.3800000000E+04               0
GRID*               1720               01.5000000000E+03-5.000000000E+02+
*       1.4400000000E+04               0
GRID*               1721               01.5000000000E+03-5.000000000E+02+
*       1.5000000000E+04               0
GRID*               1722               01.5000000000E+03-5.000000000E+02+
*       1.5600000000E+04               0
GRID*               1723               01.5000000000E+03-5.000000000E+02+
*       1.6200000000E+04               0
GRID*               1724               01.5000000000E+03-5.000000000E+02+
*       1.6800000000E+04               0
GRID*               1725               01.5000000000E+03-5.000000000E+02+
*       1.7400000000E+04               0
GRID*               1726               01.5000000000E+03-5.000000000E+02+
*       3.0000000000E+02               0
GRID*               1727               01.5000000000E+03-7.500000000E+02+
*       6.0000000000E+02               0
GRID*               1728               01.5000000000E+03-2.500000000E+02+
*       6.0000000000E+02               0
GRID*               1729               01.5000000000E+03-2.500000000E+02+
*       1.2000000000E+03               0
GRID*               1730               01.5000000000E+03-5.000000000E+02+
*       9.0000000000E+02               0
GRID*               1731               01.5000000000E+03-2.500000000E+02+
*       1.8000000000E+03               0
GRID*               1732               01.5000000000E+03-5.000000000E+02+
*       1.5000000000E+03               0
GRID*               1733               01.5000000000E+03-2.500000000E+02+
*       2.4000000000E+03               0
GRID*               1734               01.5000000000E+03-5.000000000E+02+
*       2.1000000000E+03               0
GRID*               1735               01.5000000000E+03-2.500000000E+02+
*       3.0000000000E+03               0
GRID*               1736               01.5000000000E+03-5.000000000E+02+
*       2.7000000000E+03               0
GRID*               1737               01.5000000000E+03-2.500000000E+02+
*       3.6000000000E+03               0
GRID*               1738               01.5000000000E+03-5.000000000E+02+
*       3.3000000000E+03               0
GRID*               1739               01.5000000000E+03-2.500000000E+02+
*       4.2000000000E+03               0
GRID*               1740               01.5000000000E+03-5.000000000E+02+
*       3.9000000000E+03               0
GRID*               1741               01.5000000000E+03-2.500000000E+02+
*       4.8000000000E+03               0
GRID*               1742               01.5000000000E+03-5.000000000E+02+
*       4.5000000000E+03               0
GRID*               1743               01.5000000000E+03-2.500000000E+02+
*       5.4000000000E+03               0
GRID*               1744               01.5000000000E+03-5.000000000E+02+
*       5.1000000000E+03               0
GRID*               1745               01.5000000000E+03-2.500000000E+02+
*       6.0000000000E+03               0
GRID*               1746               01.5000000000E+03-5.000000000E+02+
*       5.7000000000E+03               0
GRID*               1747               01.5000000000E+03-2.500000000E+02+
*       6.6000000000E+03               0
GRID*               1748               01.5000000000E+03-5.000000000E+02+
*       6.3000000000E+03               0
GRID*               1749               01.5000000000E+03-2.500000000E+02+
*       7.2000000000E+03               0
GRID*               1750               01.5000000000E+03-5.000000000E+02+
*       6.9000000000E+03               0
GRID*               1751               01.5000000000E+03-2.500000000E+02+
*       7.8000000000E+03               0
GRID*               1752               01.5000000000E+03-5.000000000E+02+
*       7.5000000000E+03               0
GRID*               1753               01.5000000000E+03-2.500000000E+02+
*       8.4000000000E+03               0
GRID*               1754               01.5000000000E+03-5.000000000E+02+
*       8.1000000000E+03               0
GRID*               1755               01.5000000000E+03-2.500000000E+02+
*       9.0000000000E+03               0
GRID*               1756               01.5000000000E+03-5.000000000E+02+
*       8.7000000000E+03               0
GRID*               1757               01.5000000000E+03-2.500000000E+02+
*       9.6000000000E+03               0
GRID*               1758               01.5000000000E+03-5.000000000E+02+
*       9.3000000000E+03               0
GRID*               1759               01.5000000000E+03-2.500000000E+02+
*       1.0200000000E+04               0
GRID*               1760               01.5000000000E+03-5.000000000E+02+
*       9.9000000000E+03               0
GRID*               1761               01.5000000000E+03-2.500000000E+02+
*       1.0800000000E+04               0
GRID*               1762               01.5000000000E+03-5.000000000E+02+
*       1.0500000000E+04               0
GRID*               1763               01.5000000000E+03-2.500000000E+02+
*       1.1400000000E+04               0
GRID*               1764               01.5000000000E+03-5.000000000E+02+
*       1.1100000000E+04               0
GRID*               1765               01.5000000000E+03-2.500000000E+02+
*       1.2000000000E+04               0
GRID*               1766               01.5000000000E+03-5.000000000E+02+
*       1.1700000000E+04               0
GRID*               1767               01.5000000000E+03-2.500000000E+02+
*       1.2600000000E+04               0
GRID*               1768               01.5000000000E+03-5.000000000E+02+
*       1.2300000000E+04               0
GRID*               1769               01.5000000000E+03-2.500000000E+02+
*       1.3200000000E+04               0
GRID*               1770               01.5000000000E+03-5.000000000E+02+
*       1.2900000000E+04               0
GRID*               1771               01.5000000000E+03-2.500000000E+02+
*       1.3800000000E+04               0
GRID*               1772               01.5000000000E+03-5.000000000E+02+
*       1.3500000000E+04               0
GRID*               1773               01.5000000000E+03-2.500000000E+02+
*       1.4400000000E+04               0
GRID*               1774               01.5000000000E+03-5.000000000E+02+
*       1.4100000000E+04               0
GRID*               1775               01.5000000000E+03-2.500000000E+02+
*       1.5000000000E+04               0
GRID*               1776               01.5000000000E+03-5.000000000E+02+
*       1.4700000000E+04               0
GRID*               1777               01.5000000000E+03-2.500000000E+02+
*       1.5600000000E+04               0
GRID*               1778               01.5000000000E+03-5.000000000E+02+
*       1.5300000000E+04               0
GRID*               1779               01.5000000000E+03-2.500000000E+02+
*       1.6200000000E+04               0
GRID*               1780               01.5000000000E+03-5.000000000E+02+
*       1.5900000000E+04               0
GRID*               1781               01.5000000000E+03-2.500000000E+02+
*       1.6800000000E+04               0
GRID*               1782               01.5000000000E+03-5.000000000E+02+
*       1.6500000000E+04               0
GRID*               1783               01.5000000000E+03-2.500000000E+02+
*       1.7400000000E+04               0
GRID*               1784               01.5000000000E+03-5.000000000E+02+
*       1.7100000000E+04               0
GRID*               1785               01.5000000000E+03-5.000000000E+02+
*       1.7700000000E+04               0
GRID*               1786               01.5000000000E+03-7.500000000E+02+
*       1.7400000000E+04               0
GRID*               1787               01.5000000000E+03-7.500000000E+02+
*       1.6800000000E+04               0
GRID*               1788               01.5000000000E+03-7.500000000E+02+
*       1.6200000000E+04               0
GRID*               1789               01.5000000000E+03-7.500000000E+02+
*       1.5600000000E+04               0
GRID*               1790               01.5000000000E+03-7.500000000E+02+
*       1.5000000000E+04               0
GRID*               1791               01.5000000000E+03-7.500000000E+02+
*       1.4400000000E+04               0
GRID*               1792               01.5000000000E+03-7.500000000E+02+
*       1.3800000000E+04               0
GRID*               1793               01.5000000000E+03-7.500000000E+02+
*       1.3200000000E+04               0
GRID*               1794               01.5000000000E+03-7.500000000E+02+
*       1.2600000000E+04               0
GRID*               1795               01.5000000000E+03-7.500000000E+02+
*       1.2000000000E+04               0
GRID*               1796               01.5000000000E+03-7.500000000E+02+
*       1.1400000000E+04               0
GRID*               1797               01.5000000000E+03-7.500000000E+02+
*       1.0800000000E+04               0
GRID*               1798               01.5000000000E+03-7.500000000E+02+
*       1.0200000000E+04               0
GRID*               1799               01.5000000000E+03-7.500000000E+02+
*       9.6000000000E+03               0
GRID*               1800               01.5000000000E+03-7.500000000E+02+
*       9.0000000000E+03               0
GRID*               1801               01.5000000000E+03-7.500000000E+02+
*       8.4000000000E+03               0
GRID*               1802               01.5000000000E+03-7.500000000E+02+
*       7.8000000000E+03               0
GRID*               1803               01.5000000000E+03-7.500000000E+02+
*       7.2000000000E+03               0
GRID*               1804               01.5000000000E+03-7.500000000E+02+
*       6.6000000000E+03               0
GRID*               1805               01.5000000000E+03-7.500000000E+02+
*       6.0000000000E+03               0
GRID*               1806               01.5000000000E+03-7.500000000E+02+
*       5.4000000000E+03               0
GRID*               1807               01.5000000000E+03-7.500000000E+02+
*       4.8000000000E+03               0
GRID*               1808               01.5000000000E+03-7.500000000E+02+
*       4.2000000000E+03               0
GRID*               1809               01.5000000000E+03-7.500000000E+02+
*       3.6000000000E+03               0
GRID*               1810               01.5000000000E+03-7.500000000E+02+
*       3.0000000000E+03               0
GRID*               1811               01.5000000000E+03-7.500000000E+02+
*       2.4000000000E+03               0
GRID*               1812               01.5000000000E+03-7.500000000E+02+
*       1.8000000000E+03               0
GRID*               1813               01.5000000000E+03-7.500000000E+02+
*       1.2000000000E+03               0
GRID*               1282               09.0000000000E+02-5.000000000E+02+
*       -8.668621376E-13               0
GRID*               1283               03.0000000000E+02-5.000000000E+02+
*       -8.668621376E-13               0
GRID*               1284               0-3.000000000E+02-5.000000000E+02+
*       -8.668621376E-13               0
GRID*               1285               0-9.000000000E+02-5.000000000E+02+
*       -8.668621376E-13               0
GRID*               1286               09.0000000000E+02-7.500000000E+02+
*       -8.668621376E-13               0
GRID*               1287               01.2000000000E+03-5.000000000E+02+
*       -8.668621376E-13               0
GRID*               1288               03.0000000000E+02-7.500000000E+02+
*       -8.668621376E-13               0
GRID*               1289               06.0000000000E+02-5.000000000E+02+
*       -8.668621376E-13               0
GRID*               1290               0-3.000000000E+02-7.500000000E+02+
*       -8.668621376E-13               0
GRID*               1291               00.0000000000E+00-5.000000000E+02+
*       -8.668621376E-13               0
GRID*               1292               0-9.000000000E+02-7.500000000E+02+
*       -8.668621376E-13               0
GRID*               1293               0-6.000000000E+02-5.000000000E+02+
*       -8.668621376E-13               0
GRID*               1294               0-1.200000000E+03-5.000000000E+02+
*       -8.668621376E-13               0
GRID*               1295               0-9.000000000E+02-2.500000000E+02+
*       -8.668621376E-13               0
GRID*               1296               0-3.000000000E+02-2.500000000E+02+
*       -8.668621376E-13               0
GRID*               1297               03.0000000000E+02-2.500000000E+02+
*       -8.668621376E-13               0
GRID*               1298               09.0000000000E+02-2.500000000E+02+
*       -8.668621376E-13               0
GRID*               1299               0-9.000000000E+02-5.000000000E+02+
*       1.8000000000E+04               0
GRID*               1300               0-3.000000000E+02-5.000000000E+02+
*       1.8000000000E+04               0
GRID*               1301               03.0000000000E+02-5.000000000E+02+
*       1.8000000000E+04               0
GRID*               1302               09.0000000000E+02-5.000000000E+02+
*       1.8000000000E+04               0
GRID*               1303               0-9.000000000E+02-7.500000000E+02+
*       1.8000000000E+04               0
GRID*               1304               0-1.200000000E+03-5.000000000E+02+
*       1.8000000000E+04               0
GRID*               1305               0-3.000000000E+02-7.500000000E+02+
*       1.8000000000E+04               0
GRID*               1306               0-6.000000000E+02-5.000000000E+02+
*       1.8000000000E+04               0
GRID*               1307               03.0000000000E+02-7.500000000E+02+
*       1.8000000000E+04               0
GRID*               1308               00.0000000000E+00-5.000000000E+02+
*       1.8000000000E+04               0
GRID*               1309               09.0000000000E+02-7.500000000E+02+
*       1.8000000000E+04               0
GRID*               1310               06.0000000000E+02-5.000000000E+02+
*       1.8000000000E+04               0
GRID*               1311               01.2000000000E+03-5.000000000E+02+
*       1.8000000000E+04               0
GRID*               1312               09.0000000000E+02-2.500000000E+02+
*       1.8000000000E+04               0
GRID*               1313               03.0000000000E+02-2.500000000E+02+
*       1.8000000000E+04               0
GRID*               1314               0-3.000000000E+02-2.500000000E+02+
*       1.8000000000E+04               0
GRID*               1315               0-9.000000000E+02-2.500000000E+02+
*       1.8000000000E+04               0
GRID*                171               09.0000000000E+02-5.000000000E+02+
*       6.0000000000E+02               0
GRID*                172               03.0000000000E+02-5.000000000E+02+
*       6.0000000000E+02               0
GRID*                173               0-3.000000000E+02-5.000000000E+02+
*       6.0000000000E+02               0
GRID*                174               0-9.000000000E+02-5.000000000E+02+
*       6.0000000000E+02               0
GRID*                175               0-9.000000000E+02-5.000000000E+02+
*       1.2000000000E+03               0
GRID*                176               0-9.000000000E+02-5.000000000E+02+
*       1.8000000000E+03               0
GRID*                177               0-9.000000000E+02-5.000000000E+02+
*       2.4000000000E+03               0
GRID*                178               0-9.000000000E+02-5.000000000E+02+
*       3.0000000000E+03               0
GRID*                179               0-9.000000000E+02-5.000000000E+02+
*       3.6000000000E+03               0
GRID*                180               0-9.000000000E+02-5.000000000E+02+
*       4.2000000000E+03               0
GRID*                181               0-9.000000000E+02-5.000000000E+02+
*       4.8000000000E+03               0
GRID*                182               0-9.000000000E+02-5.000000000E+02+
*       5.4000000000E+03               0
GRID*                183               0-9.000000000E+02-5.000000000E+02+
*       6.0000000000E+03               0
GRID*                184               0-9.000000000E+02-5.000000000E+02+
*       6.6000000000E+03               0
GRID*                185               0-9.000000000E+02-5.000000000E+02+
*       7.2000000000E+03               0
GRID*                186               0-9.000000000E+02-5.000000000E+02+
*       7.8000000000E+03               0
GRID*                187               0-9.000000000E+02-5.000000000E+02+
*       8.4000000000E+03               0
GRID*                188               0-9.000000000E+02-5.000000000E+02+
*       9.0000000000E+03               0
GRID*                189               0-9.000000000E+02-5.000000000E+02+
*       9.6000000000E+03               0
GRID*                190               0-9.000000000E+02-5.000000000E+02+
*       1.0200000000E+04               0
GRID*                191               0-9.000000000E+02-5.000000000E+02+
*       1.0800000000E+04               0
GRID*                192               0-9.000000000E+02-5.000000000E+02+
*       1.1400000000E+04               0
GRID*                193               0-9.000000000E+02-5.000000000E+02+
*       1.2000000000E+04               0
GRID*                194               0-9.000000000E+02-5.000000000E+02+
*       1.2600000000E+04               0
GRID*                195               0-9.000000000E+02-5.000000000E+02+
*       1.3200000000E+04               0
GRID*                196               0-9.000000000E+02-5.000000000E+02+
*       1.3800000000E+04               0
GRID*                197               0-9.000000000E+02-5.000000000E+02+
*       1.4400000000E+04               0
GRID*                198               0-9.000000000E+02-5.000000000E+02+
*       1.5000000000E+04               0
GRID*                199               0-9.000000000E+02-5.000000000E+02+
*       1.5600000000E+04               0
GRID*                200               0-9.000000000E+02-5.000000000E+02+
*       1.6200000000E+04               0
GRID*                201               0-9.000000000E+02-5.000000000E+02+
*       1.6800000000E+04               0
GRID*                202               0-9.000000000E+02-5.000000000E+02+
*       1.7400000000E+04               0
GRID*                203               0-3.000000000E+02-5.000000000E+02+
*       1.7400000000E+04               0
GRID*                204               03.0000000000E+02-5.000000000E+02+
*       1.7400000000E+04               0
GRID*                205               09.0000000000E+02-5.000000000E+02+
*       1.7400000000E+04               0
GRID*                206               09.0000000000E+02-5.000000000E+02+
*       1.6800000000E+04               0
GRID*                207               09.0000000000E+02-5.000000000E+02+
*       1.6200000000E+04               0
GRID*                208               09.0000000000E+02-5.000000000E+02+
*       1.5600000000E+04               0
GRID*                209               09.0000000000E+02-5.000000000E+02+
*       1.5000000000E+04               0
GRID*                210               09.0000000000E+02-5.000000000E+02+
*       1.4400000000E+04               0
GRID*                211               09.0000000000E+02-5.000000000E+02+
*       1.3800000000E+04               0
GRID*                212               09.0000000000E+02-5.000000000E+02+
*       1.3200000000E+04               0
GRID*                213               09.0000000000E+02-5.000000000E+02+
*       1.2600000000E+04               0
GRID*                214               09.0000000000E+02-5.000000000E+02+
*       1.2000000000E+04               0
GRID*                215               09.0000000000E+02-5.000000000E+02+
*       1.1400000000E+04               0
GRID*                216               09.0000000000E+02-5.000000000E+02+
*       1.0800000000E+04               0
GRID*                217               09.0000000000E+02-5.000000000E+02+
*       1.0200000000E+04               0
GRID*                218               09.0000000000E+02-5.000000000E+02+
*       9.6000000000E+03               0
GRID*                219               09.0000000000E+02-5.000000000E+02+
*       9.0000000000E+03               0
GRID*                220               09.0000000000E+02-5.000000000E+02+
*       8.4000000000E+03               0
GRID*                221               09.0000000000E+02-5.000000000E+02+
*       7.8000000000E+03               0
GRID*                222               09.0000000000E+02-5.000000000E+02+
*       7.2000000000E+03               0
GRID*                223               09.0000000000E+02-5.000000000E+02+
*       6.6000000000E+03               0
GRID*                224               09.0000000000E+02-5.000000000E+02+
*       6.0000000000E+03               0
GRID*                225               09.0000000000E+02-5.000000000E+02+
*       5.4000000000E+03               0
GRID*                226               09.0000000000E+02-5.000000000E+02+
*       4.8000000000E+03               0
GRID*                227               09.0000000000E+02-5.000000000E+02+
*       4.2000000000E+03               0
GRID*                228               09.0000000000E+02-5.000000000E+02+
*       3.6000000000E+03               0
GRID*                229               09.0000000000E+02-5.000000000E+02+
*       3.0000000000E+03               0
GRID*                230               09.0000000000E+02-5.000000000E+02+
*       2.4000000000E+03               0
GRID*                231               09.0000000000E+02-5.000000000E+02+
*       1.8000000000E+03               0
GRID*                232               09.0000000000E+02-5.000000000E+02+
*       1.2000000000E+03               0
GRID*                233               03.0000000000E+02-5.000000000E+02+
*       1.2000000000E+03               0
GRID*                234               0-3.000000000E+02-5.000000000E+02+
*       1.2000000000E+03               0
GRID*                235               0-3.000000000E+02-5.000000000E+02+
*       1.8000000000E+03               0
GRID*                236               0-3.000000000E+02-5.000000000E+02+
*       2.4000000000E+03               0
GRID*                237               0-3.000000000E+02-5.000000000E+02+
*       3.0000000000E+03               0
GRID*                238               0-3.000000000E+02-5.000000000E+02+
*       3.6000000000E+03               0
GRID*                239               0-3.000000000E+02-5.000000000E+02+
*       4.2000000000E+03               0
GRID*                240               0-3.000000000E+02-5.000000000E+02+
*       4.8000000000E+03               0
GRID*                241               0-3.000000000E+02-5.000000000E+02+
*       5.4000000000E+03               0
GRID*                242               0-3.000000000E+02-5.000000000E+02+
*       6.0000000000E+03               0
GRID*                243               0-3.000000000E+02-5.000000000E+02+
*       6.6000000000E+03               0
GRID*                244               0-3.000000000E+02-5.000000000E+02+
*       7.2000000000E+03               0
GRID*                245               0-3.000000000E+02-5.000000000E+02+
*       7.8000000000E+03               0
GRID*                246               0-3.000000000E+02-5.000000000E+02+
*       8.4000000000E+03               0
GRID*                247               0-3.000000000E+02-5.000000000E+02+
*       9.0000000000E+03               0
GRID*                248               0-3.000000000E+02-5.000000000E+02+
*       9.6000000000E+03               0
GRID*                249               0-3.000000000E+02-5.000000000E+02+
*       1.0200000000E+04               0
GRID*                250               0-3.000000000E+02-5.000000000E+02+
*       1.0800000000E+04               0
GRID*                251               0-3.000000000E+02-5.000000000E+02+
*       1.1400000000E+04               0
GRID*                252               0-3.000000000E+02-5.000000000E+02+
*       1.2000000000E+04               0
GRID*                253               0-3.000000000E+02-5.000000000E+02+
*       1.2600000000E+04               0
GRID*                254               0-3.000000000E+02-5.000000000E+02+
*       1.3200000000E+04               0
GRID*                255               0-3.000000000E+02-5.000000000E+02+
*       1.3800000000E+04               0
GRID*                256               0-3.000000000E+02-5.000000000E+02+
*       1.4400000000E+04               0
GRID*                257               0-3.000000000E+02-5.000000000E+02+
*       1.5000000000E+04               0
GRID*                258               0-3.000000000E+02-5.000000000E+02+
*       1.5600000000E+04               0
GRID*                259               0-3.000000000E+02-5.000000000E+02+
*       1.6200000000E+04               0
GRID*                260               0-3.000000000E+02-5.000000000E+02+
*       1.6800000000E+04               0
GRID*                261               03.0000000000E+02-5.000000000E+02+
*       1.6800000000E+04               0
GRID*                262               03.0000000000E+02-5.000000000E+02+
*       1.6200000000E+04               0
GRID*                263               03.0000000000E+02-5.000000000E+02+
*       1.5600000000E+04               0
GRID*                264               03.0000000000E+02-5.000000000E+02+
*       1.5000000000E+04               0
GRID*                265               03.0000000000E+02-5.000000000E+02+
*       1.4400000000E+04               0
GRID*                266               03.0000000000E+02-5.000000000E+02+
*       1.3800000000E+04               0
GRID*                267               03.0000000000E+02-5.000000000E+02+
*       1.3200000000E+04               0
GRID*                268               03.0000000000E+02-5.000000000E+02+
*       1.2600000000E+04               0
GRID*                269               03.0000000000E+02-5.000000000E+02+
*       1.2000000000E+04               0
GRID*                270               03.0000000000E+02-5.000000000E+02+
*       1.1400000000E+04               0
GRID*                271               03.0000000000E+02-5.000000000E+02+
*       1.0800000000E+04               0
GRID*                272               03.0000000000E+02-5.000000000E+02+
*       1.0200000000E+04               0
GRID*                273               03.0000000000E+02-5.000000000E+02+
*       9.6000000000E+03               0
GRID*                274               03.0000000000E+02-5.000000000E+02+
*       9.0000000000E+03               0
GRID*                275               03.0000000000E+02-5.000000000E+02+
*       8.4000000000E+03               0
GRID*                276               03.0000000000E+02-5.000000000E+02+
*       7.8000000000E+03               0
GRID*                277               03.0000000000E+02-5.000000000E+02+
*       7.2000000000E+03               0
GRID*                278               03.0000000000E+02-5.000000000E+02+
*       6.6000000000E+03               0
GRID*                279               03.0000000000E+02-5.000000000E+02+
*       6.0000000000E+03               0
GRID*                280               03.0000000000E+02-5.000000000E+02+
*       5.4000000000E+03               0
GRID*                281               03.0000000000E+02-5.000000000E+02+
*       4.8000000000E+03               0
GRID*                282               03.0000000000E+02-5.000000000E+02+
*       4.2000000000E+03               0
GRID*                283               03.0000000000E+02-5.000000000E+02+
*       3.6000000000E+03               0
GRID*                284               03.0000000000E+02-5.000000000E+02+
*       3.0000000000E+03               0
GRID*                285               03.0000000000E+02-5.000000000E+02+
*       2.4000000000E+03               0
GRID*                286               03.0000000000E+02-5.000000000E+02+
*       1.8000000000E+03               0
GRID*                287               09.0000000000E+02-2.500000000E+02+
*       6.0000000000E+02               0
GRID*                288               01.2000000000E+03-5.000000000E+02+
*       6.0000000000E+02               0
GRID*                289               09.0000000000E+02-5.000000000E+02+
*       3.0000000000E+02               0
GRID*                290               09.0000000000E+02-7.500000000E+02+
*       6.0000000000E+02               0
GRID*                291               03.0000000000E+02-2.500000000E+02+
*       6.0000000000E+02               0
GRID*                292               03.0000000000E+02-5.000000000E+02+
*       3.0000000000E+02               0
GRID*                293               06.0000000000E+02-5.000000000E+02+
*       6.0000000000E+02               0
GRID*                294               03.0000000000E+02-7.500000000E+02+
*       6.0000000000E+02               0
GRID*                295               0-3.000000000E+02-2.500000000E+02+
*       6.0000000000E+02               0
GRID*                296               0-3.000000000E+02-5.000000000E+02+
*       3.0000000000E+02               0
GRID*                297               00.0000000000E+00-5.000000000E+02+
*       6.0000000000E+02               0
GRID*                298               0-3.000000000E+02-7.500000000E+02+
*       6.0000000000E+02               0
GRID*                299               0-9.000000000E+02-2.500000000E+02+
*       6.0000000000E+02               0
GRID*                300               0-9.000000000E+02-5.000000000E+02+
*       3.0000000000E+02               0
GRID*                301               0-6.000000000E+02-5.000000000E+02+
*       6.0000000000E+02               0
GRID*                302               0-9.000000000E+02-7.500000000E+02+
*       6.0000000000E+02               0
GRID*                303               0-1.200000000E+03-5.000000000E+02+
*       6.0000000000E+02               0
GRID*                304               0-9.000000000E+02-2.500000000E+02+
*       1.2000000000E+03               0
GRID*                305               0-1.200000000E+03-5.000000000E+02+
*       1.2000000000E+03               0
GRID*                306               0-9.000000000E+02-5.000000000E+02+
*       9.0000000000E+02               0
GRID*                307               0-9.000000000E+02-7.500000000E+02+
*       1.2000000000E+03               0
GRID*                308               0-9.000000000E+02-2.500000000E+02+
*       1.8000000000E+03               0
GRID*                309               0-1.200000000E+03-5.000000000E+02+
*       1.8000000000E+03               0
GRID*                310               0-9.000000000E+02-5.000000000E+02+
*       1.5000000000E+03               0
GRID*                311               0-9.000000000E+02-7.500000000E+02+
*       1.8000000000E+03               0
GRID*                312               0-9.000000000E+02-2.500000000E+02+
*       2.4000000000E+03               0
GRID*                313               0-1.200000000E+03-5.000000000E+02+
*       2.4000000000E+03               0
GRID*                314               0-9.000000000E+02-5.000000000E+02+
*       2.1000000000E+03               0
GRID*                315               0-9.000000000E+02-7.500000000E+02+
*       2.4000000000E+03               0
GRID*                316               0-9.000000000E+02-2.500000000E+02+
*       3.0000000000E+03               0
GRID*                317               0-1.200000000E+03-5.000000000E+02+
*       3.0000000000E+03               0
GRID*                318               0-9.000000000E+02-5.000000000E+02+
*       2.7000000000E+03               0
GRID*                319               0-9.000000000E+02-7.500000000E+02+
*       3.0000000000E+03               0
GRID*                320               0-9.000000000E+02-2.500000000E+02+
*       3.6000000000E+03               0
GRID*                321               0-1.200000000E+03-5.000000000E+02+
*       3.6000000000E+03               0
GRID*                322               0-9.000000000E+02-5.000000000E+02+
*       3.3000000000E+03               0
GRID*                323               0-9.000000000E+02-7.500000000E+02+
*       3.6000000000E+03               0
GRID*                324               0-9.000000000E+02-2.500000000E+02+
*       4.2000000000E+03               0
GRID*                325               0-1.200000000E+03-5.000000000E+02+
*       4.2000000000E+03               0
GRID*                326               0-9.000000000E+02-5.000000000E+02+
*       3.9000000000E+03               0
GRID*                327               0-9.000000000E+02-7.500000000E+02+
*       4.2000000000E+03               0
GRID*                328               0-9.000000000E+02-2.500000000E+02+
*       4.8000000000E+03               0
GRID*                329               0-1.200000000E+03-5.000000000E+02+
*       4.8000000000E+03               0
GRID*                330               0-9.000000000E+02-5.000000000E+02+
*       4.5000000000E+03               0
GRID*                331               0-9.000000000E+02-7.500000000E+02+
*       4.8000000000E+03               0
GRID*                332               0-9.000000000E+02-2.500000000E+02+
*       5.4000000000E+03               0
GRID*                333               0-1.200000000E+03-5.000000000E+02+
*       5.4000000000E+03               0
GRID*                334               0-9.000000000E+02-5.000000000E+02+
*       5.1000000000E+03               0
GRID*                335               0-9.000000000E+02-7.500000000E+02+
*       5.4000000000E+03               0
GRID*                336               0-9.000000000E+02-2.500000000E+02+
*       6.0000000000E+03               0
GRID*                337               0-1.200000000E+03-5.000000000E+02+
*       6.0000000000E+03               0
GRID*                338               0-9.000000000E+02-5.000000000E+02+
*       5.7000000000E+03               0
GRID*                339               0-9.000000000E+02-7.500000000E+02+
*       6.0000000000E+03               0
GRID*                340               0-9.000000000E+02-2.500000000E+02+
*       6.6000000000E+03               0
GRID*                341               0-1.200000000E+03-5.000000000E+02+
*       6.6000000000E+03               0
GRID*                342               0-9.000000000E+02-5.000000000E+02+
*       6.3000000000E+03               0
GRID*                343               0-9.000000000E+02-7.500000000E+02+
*       6.6000000000E+03               0
GRID*                344               0-9.000000000E+02-2.500000000E+02+
*       7.2000000000E+03               0
GRID*                345               0-1.200000000E+03-5.000000000E+02+
*       7.2000000000E+03               0
GRID*                346               0-9.000000000E+02-5.000000000E+02+
*       6.9000000000E+03               0
GRID*                347               0-9.000000000E+02-7.500000000E+02+
*       7.2000000000E+03               0
GRID*                348               0-9.000000000E+02-2.500000000E+02+
*       7.8000000000E+03               0
GRID*                349               0-1.200000000E+03-5.000000000E+02+
*       7.8000000000E+03               0
GRID*                350               0-9.000000000E+02-5.000000000E+02+
*       7.5000000000E+03               0
GRID*                351               0-9.000000000E+02-7.500000000E+02+
*       7.8000000000E+03               0
GRID*                352               0-9.000000000E+02-2.500000000E+02+
*       8.4000000000E+03               0
GRID*                353               0-1.200000000E+03-5.000000000E+02+
*       8.4000000000E+03               0
GRID*                354               0-9.000000000E+02-5.000000000E+02+
*       8.1000000000E+03               0
GRID*                355               0-9.000000000E+02-7.500000000E+02+
*       8.4000000000E+03               0
GRID*                356               0-9.000000000E+02-2.500000000E+02+
*       9.0000000000E+03               0
GRID*                357               0-1.200000000E+03-5.000000000E+02+
*       9.0000000000E+03               0
GRID*                358               0-9.000000000E+02-5.000000000E+02+
*       8.7000000000E+03               0
GRID*                359               0-9.000000000E+02-7.500000000E+02+
*       9.0000000000E+03               0
GRID*                360               0-9.000000000E+02-2.500000000E+02+
*       9.6000000000E+03               0
GRID*                361               0-1.200000000E+03-5.000000000E+02+
*       9.6000000000E+03               0
GRID*                362               0-9.000000000E+02-5.000000000E+02+
*       9.3000000000E+03               0
GRID*                363               0-9.000000000E+02-7.500000000E+02+
*       9.6000000000E+03               0
GRID*                364               0-9.000000000E+02-2.500000000E+02+
*       1.0200000000E+04               0
GRID*                365               0-1.200000000E+03-5.000000000E+02+
*       1.0200000000E+04               0
GRID*                366               0-9.000000000E+02-5.000000000E+02+
*       9.9000000000E+03               0
GRID*                367               0-9.000000000E+02-7.500000000E+02+
*       1.0200000000E+04               0
GRID*                368               0-9.000000000E+02-2.500000000E+02+
*       1.0800000000E+04               0
GRID*                369               0-1.200000000E+03-5.000000000E+02+
*       1.0800000000E+04               0
GRID*                370               0-9.000000000E+02-5.000000000E+02+
*       1.0500000000E+04               0
GRID*                371               0-9.000000000E+02-7.500000000E+02+
*       1.0800000000E+04               0
GRID*                372               0-9.000000000E+02-2.500000000E+02+
*       1.1400000000E+04               0
GRID*                373               0-1.200000000E+03-5.000000000E+02+
*       1.1400000000E+04               0
GRID*                374               0-9.000000000E+02-5.000000000E+02+
*       1.1100000000E+04               0
GRID*                375               0-9.000000000E+02-7.500000000E+02+
*       1.1400000000E+04               0
GRID*                376               0-9.000000000E+02-2.500000000E+02+
*       1.2000000000E+04               0
GRID*                377               0-1.200000000E+03-5.000000000E+02+
*       1.2000000000E+04               0
GRID*                378               0-9.000000000E+02-5.000000000E+02+
*       1.1700000000E+04               0
GRID*                379               0-9.000000000E+02-7.500000000E+02+
*       1.2000000000E+04               0
GRID*                380               0-9.000000000E+02-2.500000000E+02+
*       1.2600000000E+04               0
GRID*                381               0-1.200000000E+03-5.000000000E+02+
*       1.2600000000E+04               0
GRID*                382               0-9.000000000E+02-5.000000000E+02+
*       1.2300000000E+04               0
GRID*                383               0-9.000000000E+02-7.500000000E+02+
*       1.2600000000E+04               0
GRID*                384               0-9.000000000E+02-2.500000000E+02+
*       1.3200000000E+04               0
GRID*                385               0-1.200000000E+03-5.000000000E+02+
*       1.3200000000E+04               0
GRID*                386               0-9.000000000E+02-5.000000000E+02+
*       1.2900000000E+04               0
GRID*                387               0-9.000000000E+02-7.500000000E+02+
*       1.3200000000E+04               0
GRID*                388               0-9.000000000E+02-2.500000000E+02+
*       1.3800000000E+04               0
GRID*                389               0-1.200000000E+03-5.000000000E+02+
*       1.3800000000E+04               0
GRID*                390               0-9.000000000E+02-5.000000000E+02+
*       1.3500000000E+04               0
GRID*                391               0-9.000000000E+02-7.500000000E+02+
*       1.3800000000E+04               0
GRID*                392               0-9.000000000E+02-2.500000000E+02+
*       1.4400000000E+04               0
GRID*                393               0-1.200000000E+03-5.000000000E+02+
*       1.4400000000E+04               0
GRID*                394               0-9.000000000E+02-5.000000000E+02+
*       1.4100000000E+04               0
GRID*                395               0-9.000000000E+02-7.500000000E+02+
*       1.4400000000E+04               0
GRID*                396               0-9.000000000E+02-2.500000000E+02+
*       1.5000000000E+04               0
GRID*                397               0-1.200000000E+03-5.000000000E+02+
*       1.5000000000E+04               0
GRID*                398               0-9.000000000E+02-5.000000000E+02+
*       1.4700000000E+04               0
GRID*                399               0-9.000000000E+02-7.500000000E+02+
*       1.5000000000E+04               0
GRID*                400               0-9.000000000E+02-2.500000000E+02+
*       1.5600000000E+04               0
GRID*                401               0-1.200000000E+03-5.000000000E+02+
*       1.5600000000E+04               0
GRID*                402               0-9.000000000E+02-5.000000000E+02+
*       1.5300000000E+04               0
GRID*                403               0-9.000000000E+02-7.500000000E+02+
*       1.5600000000E+04               0
GRID*                404               0-9.000000000E+02-2.500000000E+02+
*       1.6200000000E+04               0
GRID*                405               0-1.200000000E+03-5.000000000E+02+
*       1.6200000000E+04               0
GRID*                406               0-9.000000000E+02-5.000000000E+02+
*       1.5900000000E+04               0
GRID*                407               0-9.000000000E+02-7.500000000E+02+
*       1.6200000000E+04               0
GRID*                408               0-9.000000000E+02-2.500000000E+02+
*       1.6800000000E+04               0
GRID*                409               0-1.200000000E+03-5.000000000E+02+
*       1.6800000000E+04               0
GRID*                410               0-9.000000000E+02-5.000000000E+02+
*       1.6500000000E+04               0
GRID*                411               0-9.000000000E+02-7.500000000E+02+
*       1.6799999930E+04               0
GRID*                412               0-9.000000000E+02-2.500000000E+02+
*       1.7400000000E+04               0
GRID*                413               0-1.200000000E+03-5.000000000E+02+
*       1.7400000000E+04               0
GRID*                414               0-9.000000000E+02-5.000000000E+02+
*       1.7100000000E+04               0
GRID*                415               0-9.000000000E+02-7.500000000E+02+
*       1.7400000000E+04               0
GRID*                416               0-9.000000000E+02-5.000000000E+02+
*       1.7700000000E+04               0
GRID*                417               0-3.000000000E+02-2.500000000E+02+
*       1.7400000000E+04               0
GRID*                418               0-3.000000000E+02-5.000000000E+02+
*       1.7700000000E+04               0
GRID*                419               0-6.000000000E+02-5.000000000E+02+
*       1.7400000000E+04               0
GRID*                420               0-3.000000000E+02-7.500000000E+02+
*       1.7400000000E+04               0
GRID*                421               03.0000000000E+02-2.500000000E+02+
*       1.7400000000E+04               0
GRID*                422               03.0000000000E+02-5.000000000E+02+
*       1.7700000000E+04               0
GRID*                423               00.0000000000E+00-5.000000000E+02+
*       1.7400000000E+04               0
GRID*                424               03.0000000000E+02-7.500000000E+02+
*       1.7400000000E+04               0
GRID*                425               09.0000000000E+02-2.500000000E+02+
*       1.7400000000E+04               0
GRID*                426               09.0000000000E+02-5.000000000E+02+
*       1.7700000000E+04               0
GRID*                427               06.0000000000E+02-5.000000000E+02+
*       1.7400000000E+04               0
GRID*                428               09.0000000000E+02-7.500000000E+02+
*       1.7400000000E+04               0
GRID*                429               01.2000000000E+03-5.000000000E+02+
*       1.7400000000E+04               0
GRID*                430               09.0000000000E+02-2.500000000E+02+
*       1.6800000000E+04               0
GRID*                431               01.2000000000E+03-5.000000000E+02+
*       1.6800000000E+04               0
GRID*                432               09.0000000000E+02-5.000000000E+02+
*       1.7100000000E+04               0
GRID*                433               09.0000000000E+02-7.500000000E+02+
*       1.6800000000E+04               0
GRID*                434               09.0000000000E+02-2.500000000E+02+
*       1.6200000000E+04               0
GRID*                435               01.2000000000E+03-5.000000000E+02+
*       1.6200000000E+04               0
GRID*                436               09.0000000000E+02-5.000000000E+02+
*       1.6500000000E+04               0
GRID*                437               09.0000000000E+02-7.500000000E+02+
*       1.6200000000E+04               0
GRID*                438               09.0000000000E+02-2.500000000E+02+
*       1.5600000000E+04               0
GRID*                439               01.2000000000E+03-5.000000000E+02+
*       1.5600000000E+04               0
GRID*                440               09.0000000000E+02-5.000000000E+02+
*       1.5900000000E+04               0
GRID*                441               09.0000000000E+02-7.500000000E+02+
*       1.5600000000E+04               0
GRID*                442               09.0000000000E+02-2.500000000E+02+
*       1.5000000000E+04               0
GRID*                443               01.2000000000E+03-5.000000000E+02+
*       1.5000000000E+04               0
GRID*                444               09.0000000000E+02-5.000000000E+02+
*       1.5300000000E+04               0
GRID*                445               09.0000000000E+02-7.500000000E+02+
*       1.5000000000E+04               0
GRID*                446               09.0000000000E+02-2.500000000E+02+
*       1.4400000000E+04               0
GRID*                447               01.2000000000E+03-5.000000000E+02+
*       1.4400000000E+04               0
GRID*                448               09.0000000000E+02-5.000000000E+02+
*       1.4700000000E+04               0
GRID*                449               09.0000000000E+02-7.500000000E+02+
*       1.4400000000E+04               0
GRID*                450               09.0000000000E+02-2.500000000E+02+
*       1.3800000000E+04               0
GRID*                451               01.2000000000E+03-5.000000000E+02+
*       1.3800000000E+04               0
GRID*                452               09.0000000000E+02-5.000000000E+02+
*       1.4100000000E+04               0
GRID*                453               09.0000000000E+02-7.500000000E+02+
*       1.3800000000E+04               0
GRID*                454               09.0000000000E+02-2.500000000E+02+
*       1.3200000000E+04               0
GRID*                455               01.2000000000E+03-5.000000000E+02+
*       1.3200000000E+04               0
GRID*                456               09.0000000000E+02-5.000000000E+02+
*       1.3500000000E+04               0
GRID*                457               09.0000000000E+02-7.500000000E+02+
*       1.3200000000E+04               0
GRID*                458               09.0000000000E+02-2.500000000E+02+
*       1.2600000000E+04               0
GRID*                459               01.2000000000E+03-5.000000000E+02+
*       1.2600000000E+04               0
GRID*                460               09.0000000000E+02-5.000000000E+02+
*       1.2900000000E+04               0
GRID*                461               09.0000000000E+02-7.500000000E+02+
*       1.2600000000E+04               0
GRID*                462               09.0000000000E+02-2.500000000E+02+
*       1.2000000000E+04               0
GRID*                463               01.2000000000E+03-5.000000000E+02+
*       1.2000000000E+04               0
GRID*                464               09.0000000000E+02-5.000000000E+02+
*       1.2300000000E+04               0
GRID*                465               09.0000000000E+02-7.500000000E+02+
*       1.2000000000E+04               0
GRID*                466               09.0000000000E+02-2.500000000E+02+
*       1.1400000000E+04               0
GRID*                467               01.2000000000E+03-5.000000000E+02+
*       1.1400000000E+04               0
GRID*                468               09.0000000000E+02-5.000000000E+02+
*       1.1700000000E+04               0
GRID*                469               09.0000000000E+02-7.500000000E+02+
*       1.1400000000E+04               0
GRID*                470               09.0000000000E+02-2.500000000E+02+
*       1.0800000000E+04               0
GRID*                471               01.2000000000E+03-5.000000000E+02+
*       1.0800000000E+04               0
GRID*                472               09.0000000000E+02-5.000000000E+02+
*       1.1100000000E+04               0
GRID*                473               09.0000000000E+02-7.500000000E+02+
*       1.0800000000E+04               0
GRID*                474               09.0000000000E+02-2.500000000E+02+
*       1.0200000000E+04               0
GRID*                475               01.2000000000E+03-5.000000000E+02+
*       1.0200000000E+04               0
GRID*                476               09.0000000000E+02-5.000000000E+02+
*       1.0500000000E+04               0
GRID*                477               09.0000000000E+02-7.500000000E+02+
*       1.0200000000E+04               0
GRID*                478               09.0000000000E+02-2.500000000E+02+
*       9.6000000000E+03               0
GRID*                479               01.2000000000E+03-5.000000000E+02+
*       9.6000000000E+03               0
GRID*                480               09.0000000000E+02-5.000000000E+02+
*       9.9000000000E+03               0
GRID*                481               09.0000000000E+02-7.500000000E+02+
*       9.6000000000E+03               0
GRID*                482               09.0000000000E+02-2.500000000E+02+
*       9.0000000000E+03               0
GRID*                483               01.2000000000E+03-5.000000000E+02+
*       9.0000000000E+03               0
GRID*                484               09.0000000000E+02-5.000000000E+02+
*       9.3000000000E+03               0
GRID*                485               09.0000000000E+02-7.500000000E+02+
*       9.0000000000E+03               0
GRID*                486               09.0000000000E+02-2.500000000E+02+
*       8.4000000000E+03               0
GRID*                487               01.2000000000E+03-5.000000000E+02+
*       8.4000000000E+03               0
GRID*                488               09.0000000000E+02-5.000000000E+02+
*       8.7000000000E+03               0
GRID*                489               09.0000000000E+02-7.500000000E+02+
*       8.4000000000E+03               0
GRID*                490               09.0000000000E+02-2.500000000E+02+
*       7.8000000000E+03               0
GRID*                491               01.2000000000E+03-5.000000000E+02+
*       7.8000000000E+03               0
GRID*                492               09.0000000000E+02-5.000000000E+02+
*       8.1000000000E+03               0
GRID*                493               09.0000000000E+02-7.500000000E+02+
*       7.8000000000E+03               0
GRID*                494               09.0000000000E+02-2.500000000E+02+
*       7.2000000000E+03               0
GRID*                495               01.2000000000E+03-5.000000000E+02+
*       7.2000000000E+03               0
GRID*                496               09.0000000000E+02-5.000000000E+02+
*       7.5000000000E+03               0
GRID*                497               09.0000003493E+02-7.500000000E+02+
*       7.1999999301E+03               0
GRID*                498               09.0000000000E+02-2.500000000E+02+
*       6.6000000000E+03               0
GRID*                499               01.2000000000E+03-5.000000000E+02+
*       6.6000000000E+03               0
GRID*                500               09.0000000000E+02-5.000000000E+02+
*       6.9000000000E+03               0
GRID*                501               09.0000000000E+02-7.500000000E+02+
*       6.6000000000E+03               0
GRID*                502               09.0000000000E+02-2.500000000E+02+
*       6.0000000000E+03               0
GRID*                503               01.2000000000E+03-5.000000000E+02+
*       6.0000000000E+03               0
GRID*                504               09.0000000000E+02-5.000000000E+02+
*       6.3000000000E+03               0
GRID*                505               09.0000000000E+02-7.500000000E+02+
*       6.0000000000E+03               0
GRID*                506               09.0000000000E+02-2.500000000E+02+
*       5.4000000000E+03               0
GRID*                507               01.2000000000E+03-5.000000000E+02+
*       5.4000000000E+03               0
GRID*                508               09.0000000000E+02-5.000000000E+02+
*       5.7000000000E+03               0
GRID*                509               09.0000000000E+02-7.500000000E+02+
*       5.4000000000E+03               0
GRID*                510               09.0000000000E+02-2.500000000E+02+
*       4.8000000000E+03               0
GRID*                511               01.2000000000E+03-5.000000000E+02+
*       4.8000000000E+03               0
GRID*                512               09.0000000000E+02-5.000000000E+02+
*       5.1000000000E+03               0
GRID*                513               09.0000000000E+02-7.500000000E+02+
*       4.8000000000E+03               0
GRID*                514               09.0000000000E+02-2.500000000E+02+
*       4.2000000000E+03               0
GRID*                515               01.2000000000E+03-5.000000000E+02+
*       4.2000000000E+03               0
GRID*                516               09.0000000000E+02-5.000000000E+02+
*       4.5000000000E+03               0
GRID*                517               09.0000000000E+02-7.500000000E+02+
*       4.2000000000E+03               0
GRID*                518               09.0000000000E+02-2.500000000E+02+
*       3.6000000000E+03               0
GRID*                519               01.2000000000E+03-5.000000000E+02+
*       3.6000000000E+03               0
GRID*                520               09.0000000000E+02-5.000000000E+02+
*       3.9000000000E+03               0
GRID*                521               09.0000000000E+02-7.500000000E+02+
*       3.6000000000E+03               0
GRID*                522               09.0000000000E+02-2.500000000E+02+
*       3.0000000000E+03               0
GRID*                523               01.2000000000E+03-5.000000000E+02+
*       3.0000000000E+03               0
GRID*                524               09.0000000000E+02-5.000000000E+02+
*       3.3000000000E+03               0
GRID*                525               09.0000000000E+02-7.500000000E+02+
*       3.0000000000E+03               0
GRID*                526               09.0000000000E+02-2.500000000E+02+
*       2.4000000000E+03               0
GRID*                527               01.2000000000E+03-5.000000000E+02+
*       2.4000000000E+03               0
GRID*                528               09.0000000000E+02-5.000000000E+02+
*       2.7000000000E+03               0
GRID*                529               09.0000000000E+02-7.500000000E+02+
*       2.4000000000E+03               0
GRID*                530               09.0000000000E+02-2.500000000E+02+
*       1.8000000000E+03               0
GRID*                531               01.2000000000E+03-5.000000000E+02+
*       1.8000000000E+03               0
GRID*                532               09.0000000000E+02-5.000000000E+02+
*       2.1000000000E+03               0
GRID*                533               09.0000000000E+02-7.500000000E+02+
*       1.8000000000E+03               0
GRID*                534               09.0000000000E+02-2.500000000E+02+
*       1.2000000000E+03               0
GRID*                535               01.2000000000E+03-5.000000000E+02+
*       1.2000000000E+03               0
GRID*                536               09.0000000000E+02-5.000000000E+02+
*       1.5000000000E+03               0
GRID*                537               09.0000003493E+02-7.500000000E+02+
*       1.1999998603E+03               0
GRID*                538               09.0000000000E+02-5.000000000E+02+
*       9.0000000000E+02               0
GRID*                539               03.0000000000E+02-2.500000000E+02+
*       1.2000000000E+03               0
GRID*                540               06.0000000000E+02-5.000000000E+02+
*       1.2000000000E+03               0
GRID*                541               03.0000000000E+02-5.000000000E+02+
*       9.0000000000E+02               0
GRID*                542               03.0000000000E+02-7.500000000E+02+
*       1.2000000000E+03               0
GRID*                543               0-3.000000000E+02-2.500000000E+02+
*       1.2000000000E+03               0
GRID*                544               0-3.000000000E+02-5.000000000E+02+
*       9.0000000000E+02               0
GRID*                545               02.8421709430E-13-5.000000000E+02+
*       1.2000000000E+03               0
GRID*                546               0-3.000000000E+02-7.500000000E+02+
*       1.2000000000E+03               0
GRID*                547               0-6.000000000E+02-5.000000000E+02+
*       1.2000000000E+03               0
GRID*                548               0-3.000000000E+02-2.500000000E+02+
*       1.8000000000E+03               0
GRID*                549               0-6.000000000E+02-5.000000000E+02+
*       1.8000000000E+03               0
GRID*                550               0-3.000000000E+02-5.000000000E+02+
*       1.5000000000E+03               0
GRID*                551               0-3.000000000E+02-7.500000000E+02+
*       1.8000000000E+03               0
GRID*                552               0-3.000000000E+02-2.500000000E+02+
*       2.4000000000E+03               0
GRID*                553               0-6.000000000E+02-5.000000000E+02+
*       2.4000000000E+03               0
GRID*                554               0-3.000000000E+02-5.000000000E+02+
*       2.1000000000E+03               0
GRID*                555               0-3.000000000E+02-7.500000000E+02+
*       2.4000000000E+03               0
GRID*                556               0-3.000000000E+02-2.500000000E+02+
*       3.0000000000E+03               0
GRID*                557               0-6.000000000E+02-5.000000000E+02+
*       3.0000000000E+03               0
GRID*                558               0-3.000000000E+02-5.000000000E+02+
*       2.7000000000E+03               0
GRID*                559               0-3.000000000E+02-7.500000000E+02+
*       3.0000000000E+03               0
GRID*                560               0-3.000000000E+02-2.500000000E+02+
*       3.6000000000E+03               0
GRID*                561               0-6.000000000E+02-5.000000000E+02+
*       3.6000000000E+03               0
GRID*                562               0-3.000000000E+02-5.000000000E+02+
*       3.3000000000E+03               0
GRID*                563               0-2.999999572E+02-7.500000000E+02+
*       3.5999998289E+03               0
GRID*                564               0-3.000000000E+02-2.500000000E+02+
*       4.2000000000E+03               0
GRID*                565               0-6.000000000E+02-5.000000000E+02+
*       4.2000000000E+03               0
GRID*                566               0-3.000000000E+02-5.000000000E+02+
*       3.9000000000E+03               0
GRID*                567               0-3.000000000E+02-7.500000000E+02+
*       4.2000000000E+03               0
GRID*                568               0-3.000000000E+02-2.500000000E+02+
*       4.8000000000E+03               0
GRID*                569               0-6.000000000E+02-5.000000000E+02+
*       4.8000000000E+03               0
GRID*                570               0-3.000000000E+02-5.000000000E+02+
*       4.5000000000E+03               0
GRID*                571               0-3.000000000E+02-7.500000000E+02+
*       4.8000000000E+03               0
GRID*                572               0-3.000000000E+02-2.500000000E+02+
*       5.4000000000E+03               0
GRID*                573               0-6.000000000E+02-5.000000000E+02+
*       5.4000000000E+03               0
GRID*                574               0-3.000000000E+02-5.000000000E+02+
*       5.1000000000E+03               0
GRID*                575               0-3.000000000E+02-7.500000000E+02+
*       5.4000000000E+03               0
GRID*                576               0-3.000000000E+02-2.500000000E+02+
*       6.0000000000E+03               0
GRID*                577               0-6.000000000E+02-5.000000000E+02+
*       6.0000000000E+03               0
GRID*                578               0-3.000000000E+02-5.000000000E+02+
*       5.7000000000E+03               0
GRID*                579               0-3.000000000E+02-7.500000000E+02+
*       6.0000000000E+03               0
GRID*                580               0-3.000000000E+02-2.500000000E+02+
*       6.6000000000E+03               0
GRID*                581               0-6.000000000E+02-5.000000000E+02+
*       6.6000000000E+03               0
GRID*                582               0-3.000000000E+02-5.000000000E+02+
*       6.3000000000E+03               0
GRID*                583               0-3.000000000E+02-7.500000000E+02+
*       6.6000000000E+03               0
GRID*                584               0-3.000000000E+02-2.500000000E+02+
*       7.2000000000E+03               0
GRID*                585               0-6.000000000E+02-5.000000000E+02+
*       7.2000000000E+03               0
GRID*                586               0-3.000000000E+02-5.000000000E+02+
*       6.9000000000E+03               0
GRID*                587               0-3.000000000E+02-7.500000000E+02+
*       7.2000000000E+03               0
GRID*                588               0-3.000000000E+02-2.500000000E+02+
*       7.8000000000E+03               0
GRID*                589               0-6.000000000E+02-5.000000000E+02+
*       7.8000000000E+03               0
GRID*                590               0-3.000000000E+02-5.000000000E+02+
*       7.5000000000E+03               0
GRID*                591               0-3.000000000E+02-7.500000000E+02+
*       7.8000000000E+03               0
GRID*                592               0-3.000000000E+02-2.500000000E+02+
*       8.4000000000E+03               0
GRID*                593               0-6.000000000E+02-5.000000000E+02+
*       8.4000000000E+03               0
GRID*                594               0-3.000000000E+02-5.000000000E+02+
*       8.1000000000E+03               0
GRID*                595               0-3.000000000E+02-7.500000000E+02+
*       8.4000000000E+03               0
GRID*                596               0-3.000000000E+02-2.500000000E+02+
*       9.0000000000E+03               0
GRID*                597               0-6.000000000E+02-5.000000000E+02+
*       9.0000000000E+03               0
GRID*                598               0-3.000000000E+02-5.000000000E+02+
*       8.7000000000E+03               0
GRID*                599               0-3.000000000E+02-7.500000000E+02+
*       9.0000000000E+03               0
GRID*                600               0-3.000000000E+02-2.500000000E+02+
*       9.6000000000E+03               0
GRID*                601               0-6.000000000E+02-5.000000000E+02+
*       9.6000000000E+03               0
GRID*                602               0-3.000000000E+02-5.000000000E+02+
*       9.3000000000E+03               0
GRID*                603               0-3.000000000E+02-7.500000000E+02+
*       9.6000000000E+03               0
GRID*                604               0-3.000000000E+02-2.500000000E+02+
*       1.0200000000E+04               0
GRID*                605               0-6.000000000E+02-5.000000000E+02+
*       1.0200000000E+04               0
GRID*                606               0-3.000000000E+02-5.000000000E+02+
*       9.9000000000E+03               0
GRID*                607               0-3.000000000E+02-7.500000000E+02+
*       1.0200000000E+04               0
GRID*                608               0-3.000000000E+02-2.500000000E+02+
*       1.0800000000E+04               0
GRID*                609               0-6.000000000E+02-5.000000000E+02+
*       1.0800000000E+04               0
GRID*                610               0-3.000000000E+02-5.000000000E+02+
*       1.0500000000E+04               0
GRID*                611               0-3.000000000E+02-7.500000000E+02+
*       1.0800000000E+04               0
GRID*                612               0-3.000000000E+02-2.500000000E+02+
*       1.1400000000E+04               0
GRID*                613               0-6.000000000E+02-5.000000000E+02+
*       1.1400000000E+04               0
GRID*                614               0-3.000000000E+02-5.000000000E+02+
*       1.1100000000E+04               0
GRID*                615               0-3.000000000E+02-7.500000000E+02+
*       1.1400000000E+04               0
GRID*                616               0-3.000000000E+02-2.500000000E+02+
*       1.2000000000E+04               0
GRID*                617               0-6.000000000E+02-5.000000000E+02+
*       1.2000000000E+04               0
GRID*                618               0-3.000000000E+02-5.000000000E+02+
*       1.1700000000E+04               0
GRID*                619               0-3.000000000E+02-7.500000000E+02+
*       1.2000000000E+04               0
GRID*                620               0-3.000000000E+02-2.500000000E+02+
*       1.2600000000E+04               0
GRID*                621               0-6.000000000E+02-5.000000000E+02+
*       1.2600000000E+04               0
GRID*                622               0-3.000000000E+02-5.000000000E+02+
*       1.2300000000E+04               0
GRID*                623               0-3.000000000E+02-7.500000000E+02+
*       1.2600000000E+04               0
GRID*                624               0-3.000000000E+02-2.500000000E+02+
*       1.3200000000E+04               0
GRID*                625               0-6.000000000E+02-5.000000000E+02+
*       1.3200000000E+04               0
GRID*                626               0-3.000000000E+02-5.000000000E+02+
*       1.2900000000E+04               0
GRID*                627               0-3.000000000E+02-7.500000000E+02+
*       1.3200000000E+04               0
GRID*                628               0-3.000000000E+02-2.500000000E+02+
*       1.3800000000E+04               0
GRID*                629               0-6.000000000E+02-5.000000000E+02+
*       1.3800000000E+04               0
GRID*                630               0-3.000000000E+02-5.000000000E+02+
*       1.3500000000E+04               0
GRID*                631               0-3.000000000E+02-7.500000000E+02+
*       1.3800000000E+04               0
GRID*                632               0-3.000000000E+02-2.500000000E+02+
*       1.4400000000E+04               0
GRID*                633               0-6.000000000E+02-5.000000000E+02+
*       1.4400000000E+04               0
GRID*                634               0-3.000000000E+02-5.000000000E+02+
*       1.4100000000E+04               0
GRID*                635               0-3.000000000E+02-7.500000000E+02+
*       1.4400000000E+04               0
GRID*                636               0-3.000000000E+02-2.500000000E+02+
*       1.5000000000E+04               0
GRID*                637               0-6.000000000E+02-5.000000000E+02+
*       1.5000000000E+04               0
GRID*                638               0-3.000000000E+02-5.000000000E+02+
*       1.4700000000E+04               0
GRID*                639               0-3.000000000E+02-7.500000000E+02+
*       1.5000000000E+04               0
GRID*                640               0-3.000000000E+02-2.500000000E+02+
*       1.5600000000E+04               0
GRID*                641               0-6.000000000E+02-5.000000000E+02+
*       1.5600000000E+04               0
GRID*                642               0-3.000000000E+02-5.000000000E+02+
*       1.5300000000E+04               0
GRID*                643               0-3.000000000E+02-7.500000000E+02+
*       1.5600000000E+04               0
GRID*                644               0-3.000000000E+02-2.500000000E+02+
*       1.6200000000E+04               0
GRID*                645               0-6.000000000E+02-5.000000000E+02+
*       1.6200000000E+04               0
GRID*                646               0-3.000000000E+02-5.000000000E+02+
*       1.5900000000E+04               0
GRID*                647               0-3.000000000E+02-7.500000000E+02+
*       1.6200000000E+04               0
GRID*                648               0-3.000000000E+02-2.500000000E+02+
*       1.6800000000E+04               0
GRID*                649               0-6.000000000E+02-5.000000000E+02+
*       1.6800000000E+04               0
GRID*                650               0-3.000000000E+02-5.000000000E+02+
*       1.6500000000E+04               0
GRID*                651               0-3.000000000E+02-7.500000000E+02+
*       1.6800000000E+04               0
GRID*                652               0-3.000000000E+02-5.000000000E+02+
*       1.7100000000E+04               0
GRID*                653               03.0000000000E+02-2.500000000E+02+
*       1.6800000000E+04               0
GRID*                654               03.0000000000E+02-5.000000000E+02+
*       1.7100000000E+04               0
GRID*                655               0-2.557953849E-13-5.000000000E+02+
*       1.6800000000E+04               0
GRID*                656               03.0000000000E+02-7.500000000E+02+
*       1.6800000000E+04               0
GRID*                657               06.0000000000E+02-5.000000000E+02+
*       1.6800000000E+04               0
GRID*                658               03.0000000000E+02-2.500000000E+02+
*       1.6200000000E+04               0
GRID*                659               06.0000000000E+02-5.000000000E+02+
*       1.6200000000E+04               0
GRID*                660               03.0000000000E+02-5.000000000E+02+
*       1.6500000000E+04               0
GRID*                661               03.0000000000E+02-7.500000000E+02+
*       1.6200000000E+04               0
GRID*                662               03.0000000000E+02-2.500000000E+02+
*       1.5600000000E+04               0
GRID*                663               06.0000000000E+02-5.000000000E+02+
*       1.5600000000E+04               0
GRID*                664               03.0000000000E+02-5.000000000E+02+
*       1.5900000000E+04               0
GRID*                665               03.0000000000E+02-7.500000000E+02+
*       1.5600000000E+04               0
GRID*                666               03.0000000000E+02-2.500000000E+02+
*       1.5000000000E+04               0
GRID*                667               06.0000000000E+02-5.000000000E+02+
*       1.5000000000E+04               0
GRID*                668               03.0000000000E+02-5.000000000E+02+
*       1.5300000000E+04               0
GRID*                669               03.0000000000E+02-7.500000000E+02+
*       1.5000000000E+04               0
GRID*                670               03.0000000000E+02-2.500000000E+02+
*       1.4400000000E+04               0
GRID*                671               06.0000000000E+02-5.000000000E+02+
*       1.4400000000E+04               0
GRID*                672               03.0000000000E+02-5.000000000E+02+
*       1.4700000000E+04               0
GRID*                673               03.0000000000E+02-7.500000000E+02+
*       1.4400000000E+04               0
GRID*                674               03.0000000000E+02-2.500000000E+02+
*       1.3800000000E+04               0
GRID*                675               06.0000000000E+02-5.000000000E+02+
*       1.3800000000E+04               0
GRID*                676               03.0000000000E+02-5.000000000E+02+
*       1.4100000000E+04               0
GRID*                677               03.0000000000E+02-7.500000000E+02+
*       1.3800000000E+04               0
GRID*                678               03.0000000000E+02-2.500000000E+02+
*       1.3200000000E+04               0
GRID*                679               06.0000000000E+02-5.000000000E+02+
*       1.3200000000E+04               0
GRID*                680               03.0000000000E+02-5.000000000E+02+
*       1.3500000000E+04               0
GRID*                681               03.0000000000E+02-7.500000000E+02+
*       1.3200000000E+04               0
GRID*                682               03.0000000000E+02-2.500000000E+02+
*       1.2600000000E+04               0
GRID*                683               06.0000000000E+02-5.000000000E+02+
*       1.2600000000E+04               0
GRID*                684               03.0000000000E+02-5.000000000E+02+
*       1.2900000000E+04               0
GRID*                685               03.0000000000E+02-7.500000000E+02+
*       1.2600000000E+04               0
GRID*                686               03.0000000000E+02-2.500000000E+02+
*       1.2000000000E+04               0
GRID*                687               06.0000000000E+02-5.000000000E+02+
*       1.2000000000E+04               0
GRID*                688               03.0000000000E+02-5.000000000E+02+
*       1.2300000000E+04               0
GRID*                689               03.0000000000E+02-7.500000000E+02+
*       1.2000000000E+04               0
GRID*                690               03.0000000000E+02-2.500000000E+02+
*       1.1400000000E+04               0
GRID*                691               06.0000000000E+02-5.000000000E+02+
*       1.1400000000E+04               0
GRID*                692               03.0000000000E+02-5.000000000E+02+
*       1.1700000000E+04               0
GRID*                693               03.0000000000E+02-7.500000000E+02+
*       1.1400000000E+04               0
GRID*                694               03.0000000000E+02-2.500000000E+02+
*       1.0800000000E+04               0
GRID*                695               06.0000000000E+02-5.000000000E+02+
*       1.0800000000E+04               0
GRID*                696               03.0000000000E+02-5.000000000E+02+
*       1.1100000000E+04               0
GRID*                697               03.0000000000E+02-7.500000000E+02+
*       1.0800000000E+04               0
GRID*                698               03.0000000000E+02-2.500000000E+02+
*       1.0200000000E+04               0
GRID*                699               06.0000000000E+02-5.000000000E+02+
*       1.0200000000E+04               0
GRID*                700               03.0000000000E+02-5.000000000E+02+
*       1.0500000000E+04               0
GRID*                701               03.0000000000E+02-7.500000000E+02+
*       1.0200000000E+04               0
GRID*                702               03.0000000000E+02-2.500000000E+02+
*       9.6000000000E+03               0
GRID*                703               06.0000000000E+02-5.000000000E+02+
*       9.6000000000E+03               0
GRID*                704               03.0000000000E+02-5.000000000E+02+
*       9.9000000000E+03               0
GRID*                705               03.0000000000E+02-7.500000000E+02+
*       9.6000000000E+03               0
GRID*                706               03.0000000000E+02-2.500000000E+02+
*       9.0000000000E+03               0
GRID*                707               06.0000000000E+02-5.000000000E+02+
*       9.0000000000E+03               0
GRID*                708               03.0000000000E+02-5.000000000E+02+
*       9.3000000000E+03               0
GRID*                709               03.0000000000E+02-7.500000000E+02+
*       9.0000000000E+03               0
GRID*                710               03.0000000000E+02-2.500000000E+02+
*       8.4000000000E+03               0
GRID*                711               06.0000000000E+02-5.000000000E+02+
*       8.4000000000E+03               0
GRID*                712               03.0000000000E+02-5.000000000E+02+
*       8.7000000000E+03               0
GRID*                713               03.0000000000E+02-7.500000000E+02+
*       8.4000000000E+03               0
GRID*                714               03.0000000000E+02-2.500000000E+02+
*       7.8000000000E+03               0
GRID*                715               06.0000000000E+02-5.000000000E+02+
*       7.8000000000E+03               0
GRID*                716               03.0000000000E+02-5.000000000E+02+
*       8.1000000000E+03               0
GRID*                717               03.0000000000E+02-7.500000000E+02+
*       7.8000000000E+03               0
GRID*                718               03.0000000000E+02-2.500000000E+02+
*       7.2000000000E+03               0
GRID*                719               06.0000000000E+02-5.000000000E+02+
*       7.2000000000E+03               0
GRID*                720               03.0000000000E+02-5.000000000E+02+
*       7.5000000000E+03               0
GRID*                721               03.0000000000E+02-7.500000000E+02+
*       7.2000000000E+03               0
GRID*                722               03.0000000000E+02-2.500000000E+02+
*       6.6000000000E+03               0
GRID*                723               06.0000000000E+02-5.000000000E+02+
*       6.6000000000E+03               0
GRID*                724               03.0000000000E+02-5.000000000E+02+
*       6.9000000000E+03               0
GRID*                725               03.0000000000E+02-7.500000000E+02+
*       6.6000000000E+03               0
GRID*                726               03.0000000000E+02-2.500000000E+02+
*       6.0000000000E+03               0
GRID*                727               06.0000000000E+02-5.000000000E+02+
*       6.0000000000E+03               0
GRID*                728               03.0000000000E+02-5.000000000E+02+
*       6.3000000000E+03               0
GRID*                729               03.0000000000E+02-7.500000000E+02+
*       6.0000000000E+03               0
GRID*                730               03.0000000000E+02-2.500000000E+02+
*       5.4000000000E+03               0
GRID*                731               06.0000000000E+02-5.000000000E+02+
*       5.4000000000E+03               0
GRID*                732               03.0000000000E+02-5.000000000E+02+
*       5.7000000000E+03               0
GRID*                733               03.0000000000E+02-7.500000000E+02+
*       5.4000000000E+03               0
GRID*                734               03.0000000000E+02-2.500000000E+02+
*       4.8000000000E+03               0
GRID*                735               06.0000000000E+02-5.000000000E+02+
*       4.8000000000E+03               0
GRID*                736               03.0000000000E+02-5.000000000E+02+
*       5.1000000000E+03               0
GRID*                737               03.0000000000E+02-7.500000000E+02+
*       4.8000000000E+03               0
GRID*                738               03.0000000000E+02-2.500000000E+02+
*       4.2000000000E+03               0
GRID*                739               06.0000000000E+02-5.000000000E+02+
*       4.2000000000E+03               0
GRID*                740               03.0000000000E+02-5.000000000E+02+
*       4.5000000000E+03               0
GRID*                741               03.0000000000E+02-7.500000000E+02+
*       4.2000000000E+03               0
GRID*                742               03.0000000000E+02-2.500000000E+02+
*       3.6000000000E+03               0
GRID*                743               06.0000000000E+02-5.000000000E+02+
*       3.6000000000E+03               0
GRID*                744               03.0000000000E+02-5.000000000E+02+
*       3.9000000000E+03               0
GRID*                745               03.0000000000E+02-7.500000000E+02+
*       3.6000000000E+03               0
GRID*                746               03.0000000000E+02-2.500000000E+02+
*       3.0000000000E+03               0
GRID*                747               06.0000000000E+02-5.000000000E+02+
*       3.0000000000E+03               0
GRID*                748               03.0000000000E+02-5.000000000E+02+
*       3.3000000000E+03               0
GRID*                749               03.0000000000E+02-7.500000000E+02+
*       3.0000000000E+03               0
GRID*                750               03.0000000000E+02-2.500000000E+02+
*       2.4000000000E+03               0
GRID*                751               06.0000000000E+02-5.000000000E+02+
*       2.4000000000E+03               0
GRID*                752               03.0000000000E+02-5.000000000E+02+
*       2.7000000000E+03               0
GRID*                753               03.0000000000E+02-7.500000000E+02+
*       2.4000000000E+03               0
GRID*                754               03.0000000000E+02-2.500000000E+02+
*       1.8000000000E+03               0
GRID*                755               06.0000000000E+02-5.000000000E+02+
*       1.8000000000E+03               0
GRID*                756               03.0000000000E+02-5.000000000E+02+
*       2.1000000000E+03               0
GRID*                757               03.0000000000E+02-7.500000000E+02+
*       1.8000000000E+03               0
GRID*                758               03.0000000000E+02-5.000000000E+02+
*       1.5000000000E+03               0
GRID*                759               0-5.684341886E-14-5.000000000E+02+
*       1.6200000000E+04               0
GRID*                760               02.8421709430E-14-5.000000000E+02+
*       1.5000000000E+04               0
GRID*                761               0-8.526512829E-14-5.000000000E+02+
*       1.5600000000E+04               0
GRID*                762               03.4106051316E-13-5.000000000E+02+
*       1.3200000000E+04               0
GRID*                763               01.4210854715E-13-5.000000000E+02+
*       1.3800000000E+04               0
GRID*                764               01.9895196601E-13-5.000000000E+02+
*       1.4400000000E+04               0
GRID*                765               0-1.989519660E-13-5.000000000E+02+
*       1.0800000000E+04               0
GRID*                766               00.0000000000E+00-5.000000000E+02+
*       1.0200000000E+04               0
GRID*                767               02.8421709430E-14-5.000000000E+02+
*       9.0000000000E+03               0
GRID*                768               0-8.526512829E-14-5.000000000E+02+
*       9.6000000000E+03               0
GRID*                769               08.5265128291E-14-5.000000000E+02+
*       1.2600000000E+04               0
GRID*                770               08.5265128291E-14-5.000000000E+02+
*       1.2000000000E+04               0
GRID*                771               05.6843418861E-14-5.000000000E+02+
*       1.1400000000E+04               0
GRID*                772               00.0000000000E+00-5.000000000E+02+
*       1.8000000000E+03               0
GRID*                773               08.5265128291E-14-5.000000000E+02+
*       3.0000000000E+03               0
GRID*                774               0-2.842170943E-13-5.000000000E+02+
*       2.4000000000E+03               0
GRID*                775               0-8.526512829E-14-5.000000000E+02+
*       4.8000000000E+03               0
GRID*                776               0-1.136868377E-13-5.000000000E+02+
*       4.2000000000E+03               0
GRID*                777               05.6843418861E-14-5.000000000E+02+
*       3.6000000000E+03               0
GRID*                778               0-1.136868377E-13-5.000000000E+02+
*       6.6000000000E+03               0
GRID*                779               0-2.557953849E-13-5.000000000E+02+
*       6.0000000000E+03               0
GRID*                780               02.8421709430E-14-5.000000000E+02+
*       5.4000000000E+03               0
GRID*                781               01.4210854715E-13-5.000000000E+02+
*       8.4000000000E+03               0
GRID*                782               03.1263880373E-13-5.000000000E+02+
*       7.8000000000E+03               0
GRID*                783               0-8.526512829E-14-5.000000000E+02+
*       7.2000000000E+03               0
GRID*               4025               0-1.500000000E+03-1.000000000E+03+
*       3.6000000000E+04               0
GRID*               4026               0-1.500000000E+03-1.000000000E+03+
*       1.8000000000E+04               0
GRID*               4027               0-1.500000000E+030.0000000000E+00+
*       1.8000000000E+04               0
GRID*                156               0-1.500000000E+030.0000000000E+00+
*       3.6000000000E+04               0
GRID*               4028               01.5000000000E+03-1.000000000E+03+
*       1.8000000000E+04               0
GRID*               4029               01.5000000000E+03-1.000000000E+03+
*       3.6000000000E+04               0
GRID*               4030               01.5000000000E+030.0000000000E+00+
*       1.8000000000E+04               0
GRID*                160               01.5000000000E+030.0000000000E+00+
*       3.6000000000E+04               0
GRID*               3743               0-1.500000000E+03-1.000000000E+03+
*       3.5400000000E+04               0
GRID*               3744               0-1.500000000E+03-1.000000000E+03+
*       3.4800000000E+04               0
GRID*               3745               0-1.500000000E+03-1.000000000E+03+
*       3.4200000000E+04               0
GRID*               3746               0-1.500000000E+03-1.000000000E+03+
*       3.3600000000E+04               0
GRID*               3747               0-1.500000000E+03-1.000000000E+03+
*       3.3000000000E+04               0
GRID*               3748               0-1.500000000E+03-1.000000000E+03+
*       3.2400000000E+04               0
GRID*               3749               0-1.500000000E+03-1.000000000E+03+
*       3.1800000000E+04               0
GRID*               3750               0-1.500000000E+03-1.000000000E+03+
*       3.1200000000E+04               0
GRID*               3751               0-1.500000000E+03-1.000000000E+03+
*       3.0600000000E+04               0
GRID*               3752               0-1.500000000E+03-1.000000000E+03+
*       3.0000000000E+04               0
GRID*               3753               0-1.500000000E+03-1.000000000E+03+
*       2.9400000000E+04               0
GRID*               3754               0-1.500000000E+03-1.000000000E+03+
*       2.8800000000E+04               0
GRID*               3755               0-1.500000000E+03-1.000000000E+03+
*       2.8200000000E+04               0
GRID*               3756               0-1.500000000E+03-1.000000000E+03+
*       2.7600000000E+04               0
GRID*               3757               0-1.500000000E+03-1.000000000E+03+
*       2.7000000000E+04               0
GRID*               3758               0-1.500000000E+03-1.000000000E+03+
*       2.6400000000E+04               0
GRID*               3759               0-1.500000000E+03-1.000000000E+03+
*       2.5800000000E+04               0
GRID*               3760               0-1.500000000E+03-1.000000000E+03+
*       2.5200000000E+04               0
GRID*               3761               0-1.500000000E+03-1.000000000E+03+
*       2.4600000000E+04               0
GRID*               3762               0-1.500000000E+03-1.000000000E+03+
*       2.4000000000E+04               0
GRID*               3763               0-1.500000000E+03-1.000000000E+03+
*       2.3400000000E+04               0
GRID*               3764               0-1.500000000E+03-1.000000000E+03+
*       2.2800000000E+04               0
GRID*               3765               0-1.500000000E+03-1.000000000E+03+
*       2.2200000000E+04               0
GRID*               3766               0-1.500000000E+03-1.000000000E+03+
*       2.1600000000E+04               0
GRID*               3767               0-1.500000000E+03-1.000000000E+03+
*       2.1000000000E+04               0
GRID*               3768               0-1.500000000E+03-1.000000000E+03+
*       2.0400000000E+04               0
GRID*               3769               0-1.500000000E+03-1.000000000E+03+
*       1.9800000000E+04               0
GRID*               3770               0-1.500000000E+03-1.000000000E+03+
*       1.9200000000E+04               0
GRID*               3771               0-1.500000000E+03-1.000000000E+03+
*       1.8600000000E+04               0
GRID*               3772               0-1.500000000E+03-1.000000000E+03+
*       1.8300000000E+04               0
GRID*               3773               0-1.500000000E+03-1.000000000E+03+
*       1.8900000000E+04               0
GRID*               3774               0-1.500000000E+03-1.000000000E+03+
*       1.9500000000E+04               0
GRID*               3775               0-1.500000000E+03-1.000000000E+03+
*       2.0100000000E+04               0
GRID*               3776               0-1.500000000E+03-1.000000000E+03+
*       2.0700000000E+04               0
GRID*               3777               0-1.500000000E+03-1.000000000E+03+
*       2.1300000000E+04               0
GRID*               3778               0-1.500000000E+03-1.000000000E+03+
*       2.1900000000E+04               0
GRID*               3779               0-1.500000000E+03-1.000000000E+03+
*       2.2500000000E+04               0
GRID*               3780               0-1.500000000E+03-1.000000000E+03+
*       2.3100000000E+04               0
GRID*               3781               0-1.500000000E+03-1.000000000E+03+
*       2.3700000000E+04               0
GRID*               3782               0-1.500000000E+03-1.000000000E+03+
*       2.4300000000E+04               0
GRID*               3783               0-1.500000000E+03-1.000000000E+03+
*       2.4900000000E+04               0
GRID*               3784               0-1.500000000E+03-1.000000000E+03+
*       2.5500000000E+04               0
GRID*               3785               0-1.500000000E+03-1.000000000E+03+
*       2.6100000000E+04               0
GRID*               3786               0-1.500000000E+03-1.000000000E+03+
*       2.6700000000E+04               0
GRID*               3787               0-1.500000000E+03-1.000000000E+03+
*       2.7300000000E+04               0
GRID*               3788               0-1.500000000E+03-1.000000000E+03+
*       2.7900000000E+04               0
GRID*               3789               0-1.500000000E+03-1.000000000E+03+
*       2.8500000000E+04               0
GRID*               3790               0-1.500000000E+03-1.000000000E+03+
*       2.9100000000E+04               0
GRID*               3791               0-1.500000000E+03-1.000000000E+03+
*       2.9700000000E+04               0
GRID*               3792               0-1.500000000E+03-1.000000000E+03+
*       3.0300000000E+04               0
GRID*               3793               0-1.500000000E+03-1.000000000E+03+
*       3.0900000000E+04               0
GRID*               3794               0-1.500000000E+03-1.000000000E+03+
*       3.1500000000E+04               0
GRID*               3795               0-1.500000000E+03-1.000000000E+03+
*       3.2100000000E+04               0
GRID*               3796               0-1.500000000E+03-1.000000000E+03+
*       3.2700000000E+04               0
GRID*               3797               0-1.500000000E+03-1.000000000E+03+
*       3.3300000000E+04               0
GRID*               3798               0-1.500000000E+03-1.000000000E+03+
*       3.3900000000E+04               0
GRID*               3799               0-1.500000000E+03-1.000000000E+03+
*       3.4500000000E+04               0
GRID*               3800               0-1.500000000E+03-1.000000000E+03+
*       3.5100000000E+04               0
GRID*               3801               0-1.500000000E+03-1.000000000E+03+
*       3.5700000000E+04               0
GRID*               3802               0-1.500000000E+03-5.000000000E+02+
*       1.8000000000E+04               0
GRID*               3803               0-1.500000000E+03-2.500000000E+02+
*       1.8000000000E+04               0
GRID*               3804               0-1.500000000E+03-7.500000000E+02+
*       1.8000000000E+04               0
GRID*               3805               0-1.500000000E+03-5.000000000E+02+
*       3.6000000000E+04               0
GRID*               3806               0-1.500000000E+03-7.500000000E+02+
*       3.6000000000E+04               0
GRID*               3807               0-1.500000000E+03-2.500000000E+02+
*       3.6000000000E+04               0
GRID*                116               0-1.500000000E+030.0000000000E+00+
*       2.7000000000E+04               0
GRID*               3808               0-1.500000000E+030.0000000000E+00+
*       3.5400000000E+04               0
GRID*               3809               0-1.500000000E+030.0000000000E+00+
*       3.4800000000E+04               0
GRID*               3810               0-1.500000000E+030.0000000000E+00+
*       3.4200000000E+04               0
GRID*               3811               0-1.500000000E+030.0000000000E+00+
*       3.3600000000E+04               0
GRID*               3812               0-1.500000000E+030.0000000000E+00+
*       3.3000000000E+04               0
GRID*               3813               0-1.500000000E+030.0000000000E+00+
*       3.2400000000E+04               0
GRID*               3814               0-1.500000000E+030.0000000000E+00+
*       3.1800000000E+04               0
GRID*               3815               0-1.500000000E+030.0000000000E+00+
*       3.1200000000E+04               0
GRID*               3816               0-1.500000000E+030.0000000000E+00+
*       3.0600000000E+04               0
GRID*               3817               0-1.500000000E+030.0000000000E+00+
*       3.0000000000E+04               0
GRID*               3818               0-1.500000000E+030.0000000000E+00+
*       2.9400000000E+04               0
GRID*               3819               0-1.500000000E+030.0000000000E+00+
*       2.8800000000E+04               0
GRID*               3820               0-1.500000000E+030.0000000000E+00+
*       2.8200000000E+04               0
GRID*               3821               0-1.500000000E+030.0000000000E+00+
*       2.7600000000E+04               0
GRID*               3822               0-1.500000000E+030.0000000000E+00+
*       2.6400000000E+04               0
GRID*               3823               0-1.500000000E+030.0000000000E+00+
*       2.5800000000E+04               0
GRID*               3824               0-1.500000000E+030.0000000000E+00+
*       2.5200000000E+04               0
GRID*               3825               0-1.500000000E+030.0000000000E+00+
*       2.4600000000E+04               0
GRID*               3826               0-1.500000000E+030.0000000000E+00+
*       2.4000000000E+04               0
GRID*               3827               0-1.500000000E+030.0000000000E+00+
*       2.3400000000E+04               0
GRID*               3828               0-1.500000000E+030.0000000000E+00+
*       2.2800000000E+04               0
GRID*               3829               0-1.500000000E+030.0000000000E+00+
*       2.2200000000E+04               0
GRID*               3830               0-1.500000000E+030.0000000000E+00+
*       2.1600000000E+04               0
GRID*               3831               0-1.500000000E+030.0000000000E+00+
*       2.1000000000E+04               0
GRID*               3832               0-1.500000000E+030.0000000000E+00+
*       2.0400000000E+04               0
GRID*               3833               0-1.500000000E+030.0000000000E+00+
*       1.9800000000E+04               0
GRID*               3834               0-1.500000000E+030.0000000000E+00+
*       1.9200000000E+04               0
GRID*               3835               0-1.500000000E+030.0000000000E+00+
*       1.8600000000E+04               0
GRID*               3836               0-1.500000000E+030.0000000000E+00+
*       1.8300000000E+04               0
GRID*               3837               0-1.500000000E+030.0000000000E+00+
*       3.5700000000E+04               0
GRID*               3838               0-1.500000000E+030.0000000000E+00+
*       3.5100000000E+04               0
GRID*               3839               0-1.500000000E+030.0000000000E+00+
*       3.4500000000E+04               0
GRID*               3840               0-1.500000000E+030.0000000000E+00+
*       3.3900000000E+04               0
GRID*               3841               0-1.500000000E+030.0000000000E+00+
*       3.3300000000E+04               0
GRID*               3842               0-1.500000000E+030.0000000000E+00+
*       3.2700000000E+04               0
GRID*               3843               0-1.500000000E+030.0000000000E+00+
*       3.2100000000E+04               0
GRID*               3844               0-1.500000000E+030.0000000000E+00+
*       3.1500000000E+04               0
GRID*               3845               0-1.500000000E+030.0000000000E+00+
*       3.0900000000E+04               0
GRID*               3846               0-1.500000000E+030.0000000000E+00+
*       3.0300000000E+04               0
GRID*               3847               0-1.500000000E+030.0000000000E+00+
*       2.9700000000E+04               0
GRID*               3848               0-1.500000000E+030.0000000000E+00+
*       2.9100000000E+04               0
GRID*               3849               0-1.500000000E+030.0000000000E+00+
*       2.8500000000E+04               0
GRID*               3850               0-1.500000000E+030.0000000000E+00+
*       2.7900000000E+04               0
GRID*               3851               0-1.500000000E+030.0000000000E+00+
*       2.7300000000E+04               0
GRID*               3852               0-1.500000000E+030.0000000000E+00+
*       2.6700000000E+04               0
GRID*               3853               0-1.500000000E+030.0000000000E+00+
*       2.6100000000E+04               0
GRID*               3854               0-1.500000000E+030.0000000000E+00+
*       2.5500000000E+04               0
GRID*               3855               0-1.500000000E+030.0000000000E+00+
*       2.4900000000E+04               0
GRID*               3856               0-1.500000000E+030.0000000000E+00+
*       2.4300000000E+04               0
GRID*               3857               0-1.500000000E+030.0000000000E+00+
*       2.3700000000E+04               0
GRID*               3858               0-1.500000000E+030.0000000000E+00+
*       2.3100000000E+04               0
GRID*               3859               0-1.500000000E+030.0000000000E+00+
*       2.2500000000E+04               0
GRID*               3860               0-1.500000000E+030.0000000000E+00+
*       2.1900000000E+04               0
GRID*               3861               0-1.500000000E+030.0000000000E+00+
*       2.1300000000E+04               0
GRID*               3862               0-1.500000000E+030.0000000000E+00+
*       2.0700000000E+04               0
GRID*               3863               0-1.500000000E+030.0000000000E+00+
*       2.0100000000E+04               0
GRID*               3864               0-1.500000000E+030.0000000000E+00+
*       1.9500000000E+04               0
GRID*               3865               0-1.500000000E+030.0000000000E+00+
*       1.8900000000E+04               0
GRID*               3866               0-9.000000000E+02-1.000000000E+03+
*       1.8000000000E+04               0
GRID*               3867               0-3.000000000E+02-1.000000000E+03+
*       1.8000000000E+04               0
GRID*               3868               03.0000000000E+02-1.000000000E+03+
*       1.8000000000E+04               0
GRID*               3869               09.0000000000E+02-1.000000000E+03+
*       1.8000000000E+04               0
GRID*               3870               01.2000000000E+03-1.000000000E+03+
*       1.8000000000E+04               0
GRID*               3871               06.0000000000E+02-1.000000000E+03+
*       1.8000000000E+04               0
GRID*               3872               00.0000000000E+00-1.000000000E+03+
*       1.8000000000E+04               0
GRID*               3873               0-6.000000000E+02-1.000000000E+03+
*       1.8000000000E+04               0
GRID*               3874               0-1.200000000E+03-1.000000000E+03+
*       1.8000000000E+04               0
GRID*               3875               0-9.000000000E+02-1.000000000E+03+
*       3.6000000000E+04               0
GRID*               3876               0-3.000000000E+02-1.000000000E+03+
*       3.6000000000E+04               0
GRID*               3877               03.0000000000E+02-1.000000000E+03+
*       3.6000000000E+04               0
GRID*               3878               09.0000000000E+02-1.000000000E+03+
*       3.6000000000E+04               0
GRID*               3879               0-1.200000000E+03-1.000000000E+03+
*       3.6000000000E+04               0
GRID*               3880               0-6.000000000E+02-1.000000000E+03+
*       3.6000000000E+04               0
GRID*               3881               00.0000000000E+00-1.000000000E+03+
*       3.6000000000E+04               0
GRID*               3882               06.0000000000E+02-1.000000000E+03+
*       3.6000000000E+04               0
GRID*               3883               01.2000000000E+03-1.000000000E+03+
*       3.6000000000E+04               0
GRID*               3884               09.0000000000E+020.0000000000E+00+
*       1.8000000000E+04               0
GRID*               3885               03.0000000000E+020.0000000000E+00+
*       1.8000000000E+04               0
GRID*               3886               0-3.000000000E+020.0000000000E+00+
*       1.8000000000E+04               0
GRID*               3887               0-9.000000000E+020.0000000000E+00+
*       1.8000000000E+04               0
GRID*               3888               0-1.200000000E+030.0000000000E+00+
*       1.8000000000E+04               0
GRID*               3889               0-6.000000000E+020.0000000000E+00+
*       1.8000000000E+04               0
GRID*               3890               00.0000000000E+000.0000000000E+00+
*       1.8000000000E+04               0
GRID*               3891               06.0000000000E+020.0000000000E+00+
*       1.8000000000E+04               0
GRID*               3892               01.2000000000E+030.0000000000E+00+
*       1.8000000000E+04               0
GRID*               3893               09.0000000000E+020.0000000000E+00+
*       3.6000000000E+04               0
GRID*               3894               03.0000000000E+020.0000000000E+00+
*       3.6000000000E+04               0
GRID*               3895               0-3.000000000E+020.0000000000E+00+
*       3.6000000000E+04               0
GRID*               3896               0-9.000000000E+020.0000000000E+00+
*       3.6000000000E+04               0
GRID*               3897               01.2000000000E+030.0000000000E+00+
*       3.6000000000E+04               0
GRID*               3898               06.0000000000E+020.0000000000E+00+
*       3.6000000000E+04               0
GRID*               3899               00.0000000000E+000.0000000000E+00+
*       3.6000000000E+04               0
GRID*               3900               0-6.000000000E+020.0000000000E+00+
*       3.6000000000E+04               0
GRID*               3901               0-1.200000000E+030.0000000000E+00+
*       3.6000000000E+04               0
GRID*               3902               01.5000000000E+03-1.000000000E+03+
*       3.5400000000E+04               0
GRID*               3903               01.5000000000E+03-1.000000000E+03+
*       3.4800000000E+04               0
GRID*               3904               01.5000000000E+03-1.000000000E+03+
*       3.4200000000E+04               0
GRID*               3905               01.5000000000E+03-1.000000000E+03+
*       3.3600000000E+04               0
GRID*               3906               01.5000000000E+03-1.000000000E+03+
*       3.3000000000E+04               0
GRID*               3907               01.5000000000E+03-1.000000000E+03+
*       3.2400000000E+04               0
GRID*               3908               01.5000000000E+03-1.000000000E+03+
*       3.1800000000E+04               0
GRID*               3909               01.5000000000E+03-1.000000000E+03+
*       3.1200000000E+04               0
GRID*               3910               01.5000000000E+03-1.000000000E+03+
*       3.0600000000E+04               0
GRID*               3911               01.5000000000E+03-1.000000000E+03+
*       3.0000000000E+04               0
GRID*               3912               01.5000000000E+03-1.000000000E+03+
*       2.9400000000E+04               0
GRID*               3913               01.5000000000E+03-1.000000000E+03+
*       2.8800000000E+04               0
GRID*               3914               01.5000000000E+03-1.000000000E+03+
*       2.8200000000E+04               0
GRID*               3915               01.5000000000E+03-1.000000000E+03+
*       2.7600000000E+04               0
GRID*               3916               01.5000000000E+03-1.000000000E+03+
*       2.7000000000E+04               0
GRID*               3917               01.5000000000E+03-1.000000000E+03+
*       2.6400000000E+04               0
GRID*               3918               01.5000000000E+03-1.000000000E+03+
*       2.5800000000E+04               0
GRID*               3919               01.5000000000E+03-1.000000000E+03+
*       2.5200000000E+04               0
GRID*               3920               01.5000000000E+03-1.000000000E+03+
*       2.4600000000E+04               0
GRID*               3921               01.5000000000E+03-1.000000000E+03+
*       2.4000000000E+04               0
GRID*               3922               01.5000000000E+03-1.000000000E+03+
*       2.3400000000E+04               0
GRID*               3923               01.5000000000E+03-1.000000000E+03+
*       2.2800000000E+04               0
GRID*               3924               01.5000000000E+03-1.000000000E+03+
*       2.2200000000E+04               0
GRID*               3925               01.5000000000E+03-1.000000000E+03+
*       2.1600000000E+04               0
GRID*               3926               01.5000000000E+03-1.000000000E+03+
*       2.1000000000E+04               0
GRID*               3927               01.5000000000E+03-1.000000000E+03+
*       2.0400000000E+04               0
GRID*               3928               01.5000000000E+03-1.000000000E+03+
*       1.9800000000E+04               0
GRID*               3929               01.5000000000E+03-1.000000000E+03+
*       1.9200000000E+04               0
GRID*               3930               01.5000000000E+03-1.000000000E+03+
*       1.8600000000E+04               0
GRID*               3931               01.5000000000E+03-1.000000000E+03+
*       1.8300000000E+04               0
GRID*               3932               01.5000000000E+03-1.000000000E+03+
*       3.5700000000E+04               0
GRID*               3933               01.5000000000E+03-1.000000000E+03+
*       3.5100000000E+04               0
GRID*               3934               01.5000000000E+03-1.000000000E+03+
*       3.4500000000E+04               0
GRID*               3935               01.5000000000E+03-1.000000000E+03+
*       3.3900000000E+04               0
GRID*               3936               01.5000000000E+03-1.000000000E+03+
*       3.3300000000E+04               0
GRID*               3937               01.5000000000E+03-1.000000000E+03+
*       3.2700000000E+04               0
GRID*               3938               01.5000000000E+03-1.000000000E+03+
*       3.2100000000E+04               0
GRID*               3939               01.5000000000E+03-1.000000000E+03+
*       3.1500000000E+04               0
GRID*               3940               01.5000000000E+03-1.000000000E+03+
*       3.0900000000E+04               0
GRID*               3941               01.5000000000E+03-1.000000000E+03+
*       3.0300000000E+04               0
GRID*               3942               01.5000000000E+03-1.000000000E+03+
*       2.9700000000E+04               0
GRID*               3943               01.5000000000E+03-1.000000000E+03+
*       2.9100000000E+04               0
GRID*               3944               01.5000000000E+03-1.000000000E+03+
*       2.8500000000E+04               0
GRID*               3945               01.5000000000E+03-1.000000000E+03+
*       2.7900000000E+04               0
GRID*               3946               01.5000000000E+03-1.000000000E+03+
*       2.7300000000E+04               0
GRID*               3947               01.5000000000E+03-1.000000000E+03+
*       2.6700000000E+04               0
GRID*               3948               01.5000000000E+03-1.000000000E+03+
*       2.6100000000E+04               0
GRID*               3949               01.5000000000E+03-1.000000000E+03+
*       2.5500000000E+04               0
GRID*               3950               01.5000000000E+03-1.000000000E+03+
*       2.4900000000E+04               0
GRID*               3951               01.5000000000E+03-1.000000000E+03+
*       2.4300000000E+04               0
GRID*               3952               01.5000000000E+03-1.000000000E+03+
*       2.3700000000E+04               0
GRID*               3953               01.5000000000E+03-1.000000000E+03+
*       2.3100000000E+04               0
GRID*               3954               01.5000000000E+03-1.000000000E+03+
*       2.2500000000E+04               0
GRID*               3955               01.5000000000E+03-1.000000000E+03+
*       2.1900000000E+04               0
GRID*               3956               01.5000000000E+03-1.000000000E+03+
*       2.1300000000E+04               0
GRID*               3957               01.5000000000E+03-1.000000000E+03+
*       2.0700000000E+04               0
GRID*               3958               01.5000000000E+03-1.000000000E+03+
*       2.0100000000E+04               0
GRID*               3959               01.5000000000E+03-1.000000000E+03+
*       1.9500000000E+04               0
GRID*               3960               01.5000000000E+03-1.000000000E+03+
*       1.8900000000E+04               0
GRID*               3961               01.5000000000E+03-5.000000000E+02+
*       1.8000000000E+04               0
GRID*               3962               01.5000000000E+03-7.500000000E+02+
*       1.8000000000E+04               0
GRID*               3963               01.5000000000E+03-2.500000000E+02+
*       1.8000000000E+04               0
GRID*               3964               01.5000000000E+03-5.000000000E+02+
*       3.6000000000E+04               0
GRID*               3965               01.5000000000E+03-7.500000000E+02+
*       3.6000000000E+04               0
GRID*               3966               01.5000000000E+03-2.500000000E+02+
*       3.6000000000E+04               0
GRID*                144               01.5000000000E+030.0000000000E+00+
*       2.7000000000E+04               0
GRID*               3967               01.5000000000E+030.0000000000E+00+
*       3.5400000000E+04               0
GRID*               3968               01.5000000000E+030.0000000000E+00+
*       3.4800000000E+04               0
GRID*               3969               01.5000000000E+030.0000000000E+00+
*       3.4200000000E+04               0
GRID*               3970               01.5000000000E+030.0000000000E+00+
*       3.3600000000E+04               0
GRID*               3971               01.5000000000E+030.0000000000E+00+
*       3.3000000000E+04               0
GRID*               3972               01.5000000000E+030.0000000000E+00+
*       3.2400000000E+04               0
GRID*               3973               01.5000000000E+030.0000000000E+00+
*       3.1800000000E+04               0
GRID*               3974               01.5000000000E+030.0000000000E+00+
*       3.1200000000E+04               0
GRID*               3975               01.5000000000E+030.0000000000E+00+
*       3.0600000000E+04               0
GRID*               3976               01.5000000000E+030.0000000000E+00+
*       3.0000000000E+04               0
GRID*               3977               01.5000000000E+030.0000000000E+00+
*       2.9400000000E+04               0
GRID*               3978               01.5000000000E+030.0000000000E+00+
*       2.8800000000E+04               0
GRID*               3979               01.5000000000E+030.0000000000E+00+
*       2.8200000000E+04               0
GRID*               3980               01.5000000000E+030.0000000000E+00+
*       2.7600000000E+04               0
GRID*               3981               01.5000000000E+030.0000000000E+00+
*       2.6400000000E+04               0
GRID*               3982               01.5000000000E+030.0000000000E+00+
*       2.5800000000E+04               0
GRID*               3983               01.5000000000E+030.0000000000E+00+
*       2.5200000000E+04               0
GRID*               3984               01.5000000000E+030.0000000000E+00+
*       2.4600000000E+04               0
GRID*               3985               01.5000000000E+030.0000000000E+00+
*       2.4000000000E+04               0
GRID*               3986               01.5000000000E+030.0000000000E+00+
*       2.3400000000E+04               0
GRID*               3987               01.5000000000E+030.0000000000E+00+
*       2.2800000000E+04               0
GRID*               3988               01.5000000000E+030.0000000000E+00+
*       2.2200000000E+04               0
GRID*               3989               01.5000000000E+030.0000000000E+00+
*       2.1600000000E+04               0
GRID*               3990               01.5000000000E+030.0000000000E+00+
*       2.1000000000E+04               0
GRID*               3991               01.5000000000E+030.0000000000E+00+
*       2.0400000000E+04               0
GRID*               3992               01.5000000000E+030.0000000000E+00+
*       1.9800000000E+04               0
GRID*               3993               01.5000000000E+030.0000000000E+00+
*       1.9200000000E+04               0
GRID*               3994               01.5000000000E+030.0000000000E+00+
*       1.8600000000E+04               0
GRID*               3995               01.5000000000E+030.0000000000E+00+
*       1.8300000000E+04               0
GRID*               3996               01.5000000000E+030.0000000000E+00+
*       3.5700000000E+04               0
GRID*               3997               01.5000000000E+030.0000000000E+00+
*       3.5100000000E+04               0
GRID*               3998               01.5000000000E+030.0000000000E+00+
*       3.4500000000E+04               0
GRID*               3999               01.5000000000E+030.0000000000E+00+
*       3.3900000000E+04               0
GRID*               4000               01.5000000000E+030.0000000000E+00+
*       3.3300000000E+04               0
GRID*               4001               01.5000000000E+030.0000000000E+00+
*       3.2700000000E+04               0
GRID*               4002               01.5000000000E+030.0000000000E+00+
*       3.2100000000E+04               0
GRID*               4003               01.5000000000E+030.0000000000E+00+
*       3.1500000000E+04               0
GRID*               4004               01.5000000000E+030.0000000000E+00+
*       3.0900000000E+04               0
GRID*               4005               01.5000000000E+030.0000000000E+00+
*       3.0300000000E+04               0
GRID*               4006               01.5000000000E+030.0000000000E+00+
*       2.9700000000E+04               0
GRID*               4007               01.5000000000E+030.0000000000E+00+
*       2.9100000000E+04               0
GRID*               4008               01.5000000000E+030.0000000000E+00+
*       2.8500000000E+04               0
GRID*               4009               01.5000000000E+030.0000000000E+00+
*       2.7900000000E+04               0
GRID*               4010               01.5000000000E+030.0000000000E+00+
*       2.7300000000E+04               0
GRID*               4011               01.5000000000E+030.0000000000E+00+
*       2.6700000000E+04               0
GRID*               4012               01.5000000000E+030.0000000000E+00+
*       2.6100000000E+04               0
GRID*               4013               01.5000000000E+030.0000000000E+00+
*       2.5500000000E+04               0
GRID*               4014               01.5000000000E+030.0000000000E+00+
*       2.4900000000E+04               0
GRID*               4015               01.5000000000E+030.0000000000E+00+
*       2.4300000000E+04               0
GRID*               4016               01.5000000000E+030.0000000000E+00+
*       2.3700000000E+04               0
GRID*               4017               01.5000000000E+030.0000000000E+00+
*       2.3100000000E+04               0
GRID*               4018               01.5000000000E+030.0000000000E+00+
*       2.2500000000E+04               0
GRID*               4019               01.5000000000E+030.0000000000E+00+
*       2.1900000000E+04               0
GRID*               4020               01.5000000000E+030.0000000000E+00+
*       2.1300000000E+04               0
GRID*               4021               01.5000000000E+030.0000000000E+00+
*       2.0700000000E+04               0
GRID*               4022               01.5000000000E+030.0000000000E+00+
*       2.0100000000E+04               0
GRID*               4023               01.5000000000E+030.0000000000E+00+
*       1.9500000000E+04               0
GRID*               4024               01.5000000000E+030.0000000000E+00+
*       1.8900000000E+04               0
GRID*               2830               09.0000000000E+02-1.000000000E+03+
*       1.8600000000E+04               0
GRID*               2831               03.0000000000E+02-1.000000000E+03+
*       1.8600000000E+04               0
GRID*               2832               0-3.000000000E+02-1.000000000E+03+
*       1.8600000000E+04               0
GRID*               2833               0-9.000000000E+02-1.000000000E+03+
*       1.8600000000E+04               0
GRID*               2834               0-9.000000000E+02-1.000000000E+03+
*       1.9200000000E+04               0
GRID*               2835               0-9.000000000E+02-1.000000000E+03+
*       1.9800000000E+04               0
GRID*               2836               0-9.000000000E+02-1.000000000E+03+
*       2.0400000000E+04               0
GRID*               2837               0-9.000000000E+02-1.000000000E+03+
*       2.1000000000E+04               0
GRID*               2838               0-9.000000000E+02-1.000000000E+03+
*       2.1600000000E+04               0
GRID*               2839               0-9.000000000E+02-1.000000000E+03+
*       2.2200000000E+04               0
GRID*               2840               0-9.000000000E+02-1.000000000E+03+
*       2.2800000000E+04               0
GRID*               2841               0-9.000000000E+02-1.000000000E+03+
*       2.3400000000E+04               0
GRID*               2842               0-9.000000000E+02-1.000000000E+03+
*       2.4000000000E+04               0
GRID*               2843               0-9.000000000E+02-1.000000000E+03+
*       2.4600000000E+04               0
GRID*               2844               0-9.000000000E+02-1.000000000E+03+
*       2.5200000000E+04               0
GRID*               2845               0-9.000000000E+02-1.000000000E+03+
*       2.5800000000E+04               0
GRID*               2846               0-9.000000000E+02-1.000000000E+03+
*       2.6400000000E+04               0
GRID*               2847               0-9.000000000E+02-1.000000000E+03+
*       2.7000000000E+04               0
GRID*               2848               0-9.000000000E+02-1.000000000E+03+
*       2.7600000000E+04               0
GRID*               2849               0-9.000000000E+02-1.000000000E+03+
*       2.8200000000E+04               0
GRID*               2850               0-9.000000000E+02-1.000000000E+03+
*       2.8800000000E+04               0
GRID*               2851               0-9.000000000E+02-1.000000000E+03+
*       2.9400000000E+04               0
GRID*               2852               0-9.000000000E+02-1.000000000E+03+
*       3.0000000000E+04               0
GRID*               2853               0-9.000000000E+02-1.000000000E+03+
*       3.0600000000E+04               0
GRID*               2854               0-9.000000000E+02-1.000000000E+03+
*       3.1200000000E+04               0
GRID*               2855               0-9.000000000E+02-1.000000000E+03+
*       3.1800000000E+04               0
GRID*               2856               0-9.000000000E+02-1.000000000E+03+
*       3.2400000000E+04               0
GRID*               2857               0-9.000000000E+02-1.000000000E+03+
*       3.3000000000E+04               0
GRID*               2858               0-9.000000000E+02-1.000000000E+03+
*       3.3600000000E+04               0
GRID*               2859               0-9.000000000E+02-1.000000000E+03+
*       3.4200000000E+04               0
GRID*               2860               0-9.000000000E+02-1.000000000E+03+
*       3.4800000000E+04               0
GRID*               2861               0-9.000000000E+02-1.000000000E+03+
*       3.5400000000E+04               0
GRID*               2862               0-3.000000000E+02-1.000000000E+03+
*       3.5400000000E+04               0
GRID*               2863               03.0000000000E+02-1.000000000E+03+
*       3.5400000000E+04               0
GRID*               2864               09.0000000000E+02-1.000000000E+03+
*       3.5400000000E+04               0
GRID*               2865               09.0000000000E+02-1.000000000E+03+
*       3.4800000000E+04               0
GRID*               2866               09.0000000000E+02-1.000000000E+03+
*       3.4200000000E+04               0
GRID*               2867               09.0000000000E+02-1.000000000E+03+
*       3.3600000000E+04               0
GRID*               2868               09.0000000000E+02-1.000000000E+03+
*       3.3000000000E+04               0
GRID*               2869               09.0000000000E+02-1.000000000E+03+
*       3.2400000000E+04               0
GRID*               2870               09.0000000000E+02-1.000000000E+03+
*       3.1800000000E+04               0
GRID*               2871               09.0000000000E+02-1.000000000E+03+
*       3.1200000000E+04               0
GRID*               2872               09.0000000000E+02-1.000000000E+03+
*       3.0600000000E+04               0
GRID*               2873               09.0000000000E+02-1.000000000E+03+
*       3.0000000000E+04               0
GRID*               2874               09.0000000000E+02-1.000000000E+03+
*       2.9400000000E+04               0
GRID*               2875               09.0000000000E+02-1.000000000E+03+
*       2.8800000000E+04               0
GRID*               2876               09.0000000000E+02-1.000000000E+03+
*       2.8200000000E+04               0
GRID*               2877               09.0000000000E+02-1.000000000E+03+
*       2.7600000000E+04               0
GRID*               2878               09.0000000000E+02-1.000000000E+03+
*       2.7000000000E+04               0
GRID*               2879               09.0000000000E+02-1.000000000E+03+
*       2.6400000000E+04               0
GRID*               2880               09.0000000000E+02-1.000000000E+03+
*       2.5800000000E+04               0
GRID*               2881               09.0000000000E+02-1.000000000E+03+
*       2.5200000000E+04               0
GRID*               2882               09.0000000000E+02-1.000000000E+03+
*       2.4600000000E+04               0
GRID*               2883               09.0000000000E+02-1.000000000E+03+
*       2.4000000000E+04               0
GRID*               2884               09.0000000000E+02-1.000000000E+03+
*       2.3400000000E+04               0
GRID*               2885               09.0000000000E+02-1.000000000E+03+
*       2.2800000000E+04               0
GRID*               2886               09.0000000000E+02-1.000000000E+03+
*       2.2200000000E+04               0
GRID*               2887               09.0000000000E+02-1.000000000E+03+
*       2.1600000000E+04               0
GRID*               2888               09.0000000000E+02-1.000000000E+03+
*       2.1000000000E+04               0
GRID*               2889               09.0000000000E+02-1.000000000E+03+
*       2.0400000000E+04               0
GRID*               2890               09.0000000000E+02-1.000000000E+03+
*       1.9800000000E+04               0
GRID*               2891               09.0000006986E+02-1.000000000E+03+
*       1.9199999721E+04               0
GRID*               2892               03.0000000000E+02-1.000000000E+03+
*       1.9200000000E+04               0
GRID*               2893               0-3.000000000E+02-1.000000000E+03+
*       1.9200000000E+04               0
GRID*               2894               0-3.000000000E+02-1.000000000E+03+
*       1.9800000000E+04               0
GRID*               2895               0-3.000000000E+02-1.000000000E+03+
*       2.0400000000E+04               0
GRID*               2896               0-3.000000000E+02-1.000000000E+03+
*       2.1000000000E+04               0
GRID*               2897               0-3.000000000E+02-1.000000000E+03+
*       2.1600000000E+04               0
GRID*               2898               0-3.000000000E+02-1.000000000E+03+
*       2.2200000000E+04               0
GRID*               2899               0-3.000000000E+02-1.000000000E+03+
*       2.2800000000E+04               0
GRID*               2900               0-3.000000000E+02-1.000000000E+03+
*       2.3400000000E+04               0
GRID*               2901               0-3.000000000E+02-1.000000000E+03+
*       2.4000000000E+04               0
GRID*               2902               0-3.000000000E+02-1.000000000E+03+
*       2.4600000000E+04               0
GRID*               2903               0-3.000000000E+02-1.000000000E+03+
*       2.5200000000E+04               0
GRID*               2904               0-3.000000000E+02-1.000000000E+03+
*       2.5800000000E+04               0
GRID*               2905               0-3.000000000E+02-1.000000000E+03+
*       2.6400000000E+04               0
GRID*               2906               0-3.000000000E+02-1.000000000E+03+
*       2.7000000000E+04               0
GRID*               2907               0-3.000000000E+02-1.000000000E+03+
*       2.7600000000E+04               0
GRID*               2908               0-3.000000000E+02-1.000000000E+03+
*       2.8200000000E+04               0
GRID*               2909               0-3.000000000E+02-1.000000000E+03+
*       2.8800000000E+04               0
GRID*               2910               0-3.000000000E+02-1.000000000E+03+
*       2.9400000000E+04               0
GRID*               2911               0-3.000000000E+02-1.000000000E+03+
*       3.0000000000E+04               0
GRID*               2912               0-3.000000000E+02-1.000000000E+03+
*       3.0600000000E+04               0
GRID*               2913               0-3.000000000E+02-1.000000000E+03+
*       3.1200000000E+04               0
GRID*               2914               0-3.000000000E+02-1.000000000E+03+
*       3.1800000000E+04               0
GRID*               2915               0-3.000000000E+02-1.000000000E+03+
*       3.2400000000E+04               0
GRID*               2916               0-3.000000000E+02-1.000000000E+03+
*       3.3000000000E+04               0
GRID*               2917               0-3.000000000E+02-1.000000000E+03+
*       3.3600000000E+04               0
GRID*               2918               0-3.000000000E+02-1.000000000E+03+
*       3.4200000000E+04               0
GRID*               2919               0-3.000000000E+02-1.000000000E+03+
*       3.4800000000E+04               0
GRID*               2920               03.0000000000E+02-1.000000000E+03+
*       3.4800000000E+04               0
GRID*               2921               03.0000000000E+02-1.000000000E+03+
*       3.4200000000E+04               0
GRID*               2922               03.0000000000E+02-1.000000000E+03+
*       3.3600000000E+04               0
GRID*               2923               03.0000000000E+02-1.000000000E+03+
*       3.3000000000E+04               0
GRID*               2924               03.0000000000E+02-1.000000000E+03+
*       3.2400000000E+04               0
GRID*               2925               03.0000000000E+02-1.000000000E+03+
*       3.1800000000E+04               0
GRID*               2926               03.0000000000E+02-1.000000000E+03+
*       3.1200000000E+04               0
GRID*               2927               03.0000000000E+02-1.000000000E+03+
*       3.0600000000E+04               0
GRID*               2928               03.0000000000E+02-1.000000000E+03+
*       3.0000000000E+04               0
GRID*               2929               03.0000000000E+02-1.000000000E+03+
*       2.9400000000E+04               0
GRID*               2930               03.0000000000E+02-1.000000000E+03+
*       2.8800000000E+04               0
GRID*               2931               03.0000000000E+02-1.000000000E+03+
*       2.8200000000E+04               0
GRID*               2932               03.0000000000E+02-1.000000000E+03+
*       2.7600000000E+04               0
GRID*               2933               03.0000000000E+02-1.000000000E+03+
*       2.7000000000E+04               0
GRID*               2934               03.0000000000E+02-1.000000000E+03+
*       2.6400000000E+04               0
GRID*               2935               03.0000000000E+02-1.000000000E+03+
*       2.5800000000E+04               0
GRID*               2936               03.0000000000E+02-1.000000000E+03+
*       2.5200000000E+04               0
GRID*               2937               03.0000000000E+02-1.000000000E+03+
*       2.4600000000E+04               0
GRID*               2938               03.0000000000E+02-1.000000000E+03+
*       2.4000000000E+04               0
GRID*               2939               03.0000000000E+02-1.000000000E+03+
*       2.3400000000E+04               0
GRID*               2940               03.0000000000E+02-1.000000000E+03+
*       2.2800000000E+04               0
GRID*               2941               03.0000000000E+02-1.000000000E+03+
*       2.2200000000E+04               0
GRID*               2942               03.0000000000E+02-1.000000000E+03+
*       2.1600000000E+04               0
GRID*               2943               03.0000000000E+02-1.000000000E+03+
*       2.1000000000E+04               0
GRID*               2944               03.0000000000E+02-1.000000000E+03+
*       2.0400000000E+04               0
GRID*               2945               03.0000000000E+02-1.000000000E+03+
*       1.9800000000E+04               0
GRID*               2946               01.2000000000E+03-1.000000000E+03+
*       1.8600000000E+04               0
GRID*               2947               09.0000000000E+02-1.000000000E+03+
*       1.8300000000E+04               0
GRID*               2948               03.0000000000E+02-1.000000000E+03+
*       1.8300000000E+04               0
GRID*               2949               06.0000000000E+02-1.000000000E+03+
*       1.8600000000E+04               0
GRID*               2950               0-3.000000000E+02-1.000000000E+03+
*       1.8300000000E+04               0
GRID*               2951               01.7053025658E-13-1.000000000E+03+
*       1.8600000000E+04               0
GRID*               2952               0-9.000000000E+02-1.000000000E+03+
*       1.8300000000E+04               0
GRID*               2953               0-6.000000000E+02-1.000000000E+03+
*       1.8600000000E+04               0
GRID*               2954               0-1.200000000E+03-1.000000000E+03+
*       1.8600000000E+04               0
GRID*               2955               0-1.200000000E+03-1.000000000E+03+
*       1.9200000000E+04               0
GRID*               2956               0-9.000000000E+02-1.000000000E+03+
*       1.8900000000E+04               0
GRID*               2957               0-1.200000000E+03-1.000000000E+03+
*       1.9800000000E+04               0
GRID*               2958               0-9.000000000E+02-1.000000000E+03+
*       1.9500000000E+04               0
GRID*               2959               0-1.200000000E+03-1.000000000E+03+
*       2.0400000000E+04               0
GRID*               2960               0-9.000000000E+02-1.000000000E+03+
*       2.0100000000E+04               0
GRID*               2961               0-1.200000000E+03-1.000000000E+03+
*       2.1000000000E+04               0
GRID*               2962               0-9.000000000E+02-1.000000000E+03+
*       2.0700000000E+04               0
GRID*               2963               0-1.200000000E+03-1.000000000E+03+
*       2.1600000000E+04               0
GRID*               2964               0-9.000000000E+02-1.000000000E+03+
*       2.1300000000E+04               0
GRID*               2965               0-1.200000000E+03-1.000000000E+03+
*       2.2200000000E+04               0
GRID*               2966               0-9.000000000E+02-1.000000000E+03+
*       2.1900000000E+04               0
GRID*               2967               0-1.200000000E+03-1.000000000E+03+
*       2.2800000000E+04               0
GRID*               2968               0-9.000000000E+02-1.000000000E+03+
*       2.2500000000E+04               0
GRID*               2969               0-1.200000000E+03-1.000000000E+03+
*       2.3400000000E+04               0
GRID*               2970               0-9.000000000E+02-1.000000000E+03+
*       2.3100000000E+04               0
GRID*               2971               0-1.200000000E+03-1.000000000E+03+
*       2.4000000000E+04               0
GRID*               2972               0-9.000000000E+02-1.000000000E+03+
*       2.3700000000E+04               0
GRID*               2973               0-1.200000000E+03-1.000000000E+03+
*       2.4600000000E+04               0
GRID*               2974               0-9.000000000E+02-1.000000000E+03+
*       2.4300000000E+04               0
GRID*               2975               0-1.200000000E+03-1.000000000E+03+
*       2.5200000000E+04               0
GRID*               2976               0-9.000000000E+02-1.000000000E+03+
*       2.4900000000E+04               0
GRID*               2977               0-1.200000000E+03-1.000000000E+03+
*       2.5800000000E+04               0
GRID*               2978               0-9.000000000E+02-1.000000000E+03+
*       2.5500000000E+04               0
GRID*               2979               0-1.200000000E+03-1.000000000E+03+
*       2.6400000000E+04               0
GRID*               2980               0-9.000000000E+02-1.000000000E+03+
*       2.6100000000E+04               0
GRID*               2981               0-1.200000000E+03-1.000000000E+03+
*       2.7000000000E+04               0
GRID*               2982               0-9.000000000E+02-1.000000000E+03+
*       2.6700000000E+04               0
GRID*               2983               0-1.200000000E+03-1.000000000E+03+
*       2.7600000000E+04               0
GRID*               2984               0-9.000000000E+02-1.000000000E+03+
*       2.7300000000E+04               0
GRID*               2985               0-1.200000000E+03-1.000000000E+03+
*       2.8200000000E+04               0
GRID*               2986               0-9.000000000E+02-1.000000000E+03+
*       2.7900000000E+04               0
GRID*               2987               0-1.200000000E+03-1.000000000E+03+
*       2.8800000000E+04               0
GRID*               2988               0-9.000000000E+02-1.000000000E+03+
*       2.8500000000E+04               0
GRID*               2989               0-1.200000000E+03-1.000000000E+03+
*       2.9400000000E+04               0
GRID*               2990               0-9.000000000E+02-1.000000000E+03+
*       2.9100000000E+04               0
GRID*               2991               0-1.200000000E+03-1.000000000E+03+
*       3.0000000000E+04               0
GRID*               2992               0-9.000000000E+02-1.000000000E+03+
*       2.9700000000E+04               0
GRID*               2993               0-1.200000000E+03-1.000000000E+03+
*       3.0600000000E+04               0
GRID*               2994               0-9.000000000E+02-1.000000000E+03+
*       3.0300000000E+04               0
GRID*               2995               0-1.200000000E+03-1.000000000E+03+
*       3.1200000000E+04               0
GRID*               2996               0-9.000000000E+02-1.000000000E+03+
*       3.0900000000E+04               0
GRID*               2997               0-1.200000000E+03-1.000000000E+03+
*       3.1800000000E+04               0
GRID*               2998               0-9.000000000E+02-1.000000000E+03+
*       3.1500000000E+04               0
GRID*               2999               0-1.200000000E+03-1.000000000E+03+
*       3.2400000000E+04               0
GRID*               3000               0-9.000000000E+02-1.000000000E+03+
*       3.2100000000E+04               0
GRID*               3001               0-1.200000000E+03-1.000000000E+03+
*       3.3000000000E+04               0
GRID*               3002               0-9.000000000E+02-1.000000000E+03+
*       3.2700000000E+04               0
GRID*               3003               0-1.200000000E+03-1.000000000E+03+
*       3.3600000000E+04               0
GRID*               3004               0-9.000000000E+02-1.000000000E+03+
*       3.3300000000E+04               0
GRID*               3005               0-1.200000000E+03-1.000000000E+03+
*       3.4200000000E+04               0
GRID*               3006               0-9.000000000E+02-1.000000000E+03+
*       3.3900000000E+04               0
GRID*               3007               0-1.200000000E+03-1.000000000E+03+
*       3.4800000000E+04               0
GRID*               3008               0-9.000000000E+02-1.000000000E+03+
*       3.4500000000E+04               0
GRID*               3009               0-1.200000000E+03-1.000000000E+03+
*       3.5400000000E+04               0
GRID*               3010               0-9.000000000E+02-1.000000000E+03+
*       3.5100000000E+04               0
GRID*               3011               0-9.000000000E+02-1.000000000E+03+
*       3.5700000000E+04               0
GRID*               3012               0-3.000000000E+02-1.000000000E+03+
*       3.5700000000E+04               0
GRID*               3013               0-6.000000000E+02-1.000000000E+03+
*       3.5400000000E+04               0
GRID*               3014               03.0000000000E+02-1.000000000E+03+
*       3.5700000000E+04               0
GRID*               3015               01.5631940187E-13-1.000000000E+03+
*       3.5400000000E+04               0
GRID*               3016               09.0000000000E+02-1.000000000E+03+
*       3.5700000000E+04               0
GRID*               3017               06.0000000000E+02-1.000000000E+03+
*       3.5400000000E+04               0
GRID*               3018               01.2000000000E+03-1.000000000E+03+
*       3.5400000000E+04               0
GRID*               3019               01.2000000000E+03-1.000000000E+03+
*       3.4800000000E+04               0
GRID*               3020               09.0000000000E+02-1.000000000E+03+
*       3.5100000000E+04               0
GRID*               3021               01.2000000000E+03-1.000000000E+03+
*       3.4200000000E+04               0
GRID*               3022               09.0000000000E+02-1.000000000E+03+
*       3.4500000000E+04               0
GRID*               3023               01.2000000000E+03-1.000000000E+03+
*       3.3600000000E+04               0
GRID*               3024               09.0000000000E+02-1.000000000E+03+
*       3.3900000000E+04               0
GRID*               3025               01.2000000000E+03-1.000000000E+03+
*       3.3000000000E+04               0
GRID*               3026               09.0000000000E+02-1.000000000E+03+
*       3.3300000000E+04               0
GRID*               3027               01.2000000000E+03-1.000000000E+03+
*       3.2400000000E+04               0
GRID*               3028               09.0000000000E+02-1.000000000E+03+
*       3.2700000000E+04               0
GRID*               3029               01.2000000000E+03-1.000000000E+03+
*       3.1800000000E+04               0
GRID*               3030               09.0000000000E+02-1.000000000E+03+
*       3.2100000000E+04               0
GRID*               3031               01.2000000000E+03-1.000000000E+03+
*       3.1200000000E+04               0
GRID*               3032               09.0000000000E+02-1.000000000E+03+
*       3.1500000000E+04               0
GRID*               3033               01.2000000000E+03-1.000000000E+03+
*       3.0600000000E+04               0
GRID*               3034               09.0000000000E+02-1.000000000E+03+
*       3.0900000000E+04               0
GRID*               3035               01.2000000000E+03-1.000000000E+03+
*       3.0000000000E+04               0
GRID*               3036               09.0000000000E+02-1.000000000E+03+
*       3.0300000000E+04               0
GRID*               3037               01.2000000000E+03-1.000000000E+03+
*       2.9400000000E+04               0
GRID*               3038               09.0000000000E+02-1.000000000E+03+
*       2.9700000000E+04               0
GRID*               3039               01.2000000000E+03-1.000000000E+03+
*       2.8800000000E+04               0
GRID*               3040               09.0000000000E+02-1.000000000E+03+
*       2.9100000000E+04               0
GRID*               3041               01.2000000000E+03-1.000000000E+03+
*       2.8200000000E+04               0
GRID*               3042               09.0000000000E+02-1.000000000E+03+
*       2.8500000000E+04               0
GRID*               3043               01.2000000000E+03-1.000000000E+03+
*       2.7600000000E+04               0
GRID*               3044               09.0000000000E+02-1.000000000E+03+
*       2.7900000000E+04               0
GRID*               3045               01.2000000000E+03-1.000000000E+03+
*       2.7000000000E+04               0
GRID*               3046               09.0000000000E+02-1.000000000E+03+
*       2.7300000000E+04               0
GRID*               3047               01.2000000000E+03-1.000000000E+03+
*       2.6400000000E+04               0
GRID*               3048               09.0000000000E+02-1.000000000E+03+
*       2.6700000000E+04               0
GRID*               3049               01.2000000000E+03-1.000000000E+03+
*       2.5800000000E+04               0
GRID*               3050               09.0000000000E+02-1.000000000E+03+
*       2.6100000000E+04               0
GRID*               3051               01.2000000000E+03-1.000000000E+03+
*       2.5200000000E+04               0
GRID*               3052               09.0000000000E+02-1.000000000E+03+
*       2.5500000000E+04               0
GRID*               3053               01.2000000000E+03-1.000000000E+03+
*       2.4600000000E+04               0
GRID*               3054               09.0000000000E+02-1.000000000E+03+
*       2.4900000000E+04               0
GRID*               3055               01.2000000000E+03-1.000000000E+03+
*       2.4000000000E+04               0
GRID*               3056               09.0000000000E+02-1.000000000E+03+
*       2.4300000000E+04               0
GRID*               3057               01.2000000000E+03-1.000000000E+03+
*       2.3400000000E+04               0
GRID*               3058               09.0000000000E+02-1.000000000E+03+
*       2.3700000000E+04               0
GRID*               3059               01.2000000000E+03-1.000000000E+03+
*       2.2800000000E+04               0
GRID*               3060               09.0000000000E+02-1.000000000E+03+
*       2.3100000000E+04               0
GRID*               3061               01.2000000000E+03-1.000000000E+03+
*       2.2200000000E+04               0
GRID*               3062               09.0000000000E+02-1.000000000E+03+
*       2.2500000000E+04               0
GRID*               3063               01.2000000000E+03-1.000000000E+03+
*       2.1600000000E+04               0
GRID*               3064               09.0000000000E+02-1.000000000E+03+
*       2.1900000000E+04               0
GRID*               3065               01.2000000000E+03-1.000000000E+03+
*       2.1000000000E+04               0
GRID*               3066               09.0000000000E+02-1.000000000E+03+
*       2.1300000000E+04               0
GRID*               3067               01.2000000000E+03-1.000000000E+03+
*       2.0400000000E+04               0
GRID*               3068               09.0000000000E+02-1.000000000E+03+
*       2.0700000000E+04               0
GRID*               3069               01.2000000000E+03-1.000000000E+03+
*       1.9800000000E+04               0
GRID*               3070               09.0000000000E+02-1.000000000E+03+
*       2.0100000000E+04               0
GRID*               3071               01.2000000349E+03-1.000000000E+03+
*       1.9199999860E+04               0
GRID*               3072               09.0000003493E+02-1.000000000E+03+
*       1.9499999860E+04               0
GRID*               3073               09.0000003493E+02-1.000000000E+03+
*       1.8899999860E+04               0
GRID*               3074               06.0000003493E+02-1.000000000E+03+
*       1.9199999860E+04               0
GRID*               3075               03.0000000000E+02-1.000000000E+03+
*       1.8900000000E+04               0
GRID*               3076               0-3.000000000E+02-1.000000000E+03+
*       1.8900000000E+04               0
GRID*               3077               04.5830006457E-13-1.000000000E+03+
*       1.9200000000E+04               0
GRID*               3078               0-6.000000000E+02-1.000000000E+03+
*       1.9200000000E+04               0
GRID*               3079               0-6.000000000E+02-1.000000000E+03+
*       1.9800000000E+04               0
GRID*               3080               0-3.000000000E+02-1.000000000E+03+
*       1.9500000000E+04               0
GRID*               3081               0-6.000000000E+02-1.000000000E+03+
*       2.0400000000E+04               0
GRID*               3082               0-3.000000000E+02-1.000000000E+03+
*       2.0100000000E+04               0
GRID*               3083               0-6.000000000E+02-1.000000000E+03+
*       2.1000000000E+04               0
GRID*               3084               0-3.000000000E+02-1.000000000E+03+
*       2.0700000000E+04               0
GRID*               3085               0-6.000000000E+02-1.000000000E+03+
*       2.1600000000E+04               0
GRID*               3086               0-3.000000000E+02-1.000000000E+03+
*       2.1300000000E+04               0
GRID*               3087               0-6.000000000E+02-1.000000000E+03+
*       2.2200000000E+04               0
GRID*               3088               0-3.000000000E+02-1.000000000E+03+
*       2.1900000000E+04               0
GRID*               3089               0-6.000000000E+02-1.000000000E+03+
*       2.2800000000E+04               0
GRID*               3090               0-3.000000000E+02-1.000000000E+03+
*       2.2500000000E+04               0
GRID*               3091               0-6.000000000E+02-1.000000000E+03+
*       2.3400000000E+04               0
GRID*               3092               0-3.000000000E+02-1.000000000E+03+
*       2.3100000000E+04               0
GRID*               3093               0-6.000000000E+02-1.000000000E+03+
*       2.4000000000E+04               0
GRID*               3094               0-3.000000000E+02-1.000000000E+03+
*       2.3700000000E+04               0
GRID*               3095               0-6.000000000E+02-1.000000000E+03+
*       2.4600000000E+04               0
GRID*               3096               0-3.000000000E+02-1.000000000E+03+
*       2.4300000000E+04               0
GRID*               3097               0-6.000000000E+02-1.000000000E+03+
*       2.5200000000E+04               0
GRID*               3098               0-3.000000000E+02-1.000000000E+03+
*       2.4900000000E+04               0
GRID*               3099               0-6.000000000E+02-1.000000000E+03+
*       2.5800000000E+04               0
GRID*               3100               0-3.000000000E+02-1.000000000E+03+
*       2.5500000000E+04               0
GRID*               3101               0-6.000000000E+02-1.000000000E+03+
*       2.6400000000E+04               0
GRID*               3102               0-3.000000000E+02-1.000000000E+03+
*       2.6100000000E+04               0
GRID*               3103               0-6.000000000E+02-1.000000000E+03+
*       2.7000000000E+04               0
GRID*               3104               0-3.000000000E+02-1.000000000E+03+
*       2.6700000000E+04               0
GRID*               3105               0-6.000000000E+02-1.000000000E+03+
*       2.7600000000E+04               0
GRID*               3106               0-3.000000000E+02-1.000000000E+03+
*       2.7300000000E+04               0
GRID*               3107               0-6.000000000E+02-1.000000000E+03+
*       2.8200000000E+04               0
GRID*               3108               0-3.000000000E+02-1.000000000E+03+
*       2.7900000000E+04               0
GRID*               3109               0-6.000000000E+02-1.000000000E+03+
*       2.8800000000E+04               0
GRID*               3110               0-3.000000000E+02-1.000000000E+03+
*       2.8500000000E+04               0
GRID*               3111               0-6.000000000E+02-1.000000000E+03+
*       2.9400000000E+04               0
GRID*               3112               0-3.000000000E+02-1.000000000E+03+
*       2.9100000000E+04               0
GRID*               3113               0-6.000000000E+02-1.000000000E+03+
*       3.0000000000E+04               0
GRID*               3114               0-3.000000000E+02-1.000000000E+03+
*       2.9700000000E+04               0
GRID*               3115               0-6.000000000E+02-1.000000000E+03+
*       3.0600000000E+04               0
GRID*               3116               0-3.000000000E+02-1.000000000E+03+
*       3.0300000000E+04               0
GRID*               3117               0-6.000000000E+02-1.000000000E+03+
*       3.1200000000E+04               0
GRID*               3118               0-3.000000000E+02-1.000000000E+03+
*       3.0900000000E+04               0
GRID*               3119               0-6.000000000E+02-1.000000000E+03+
*       3.1800000000E+04               0
GRID*               3120               0-3.000000000E+02-1.000000000E+03+
*       3.1500000000E+04               0
GRID*               3121               0-6.000000000E+02-1.000000000E+03+
*       3.2400000000E+04               0
GRID*               3122               0-3.000000000E+02-1.000000000E+03+
*       3.2100000000E+04               0
GRID*               3123               0-6.000000000E+02-1.000000000E+03+
*       3.3000000000E+04               0
GRID*               3124               0-3.000000000E+02-1.000000000E+03+
*       3.2700000000E+04               0
GRID*               3125               0-6.000000000E+02-1.000000000E+03+
*       3.3600000000E+04               0
GRID*               3126               0-3.000000000E+02-1.000000000E+03+
*       3.3300000000E+04               0
GRID*               3127               0-6.000000000E+02-1.000000000E+03+
*       3.4200000000E+04               0
GRID*               3128               0-3.000000000E+02-1.000000000E+03+
*       3.3900000000E+04               0
GRID*               3129               0-6.000000000E+02-1.000000000E+03+
*       3.4800000000E+04               0
GRID*               3130               0-3.000000000E+02-1.000000000E+03+
*       3.4500000000E+04               0
GRID*               3131               0-3.000000000E+02-1.000000000E+03+
*       3.5100000000E+04               0
GRID*               3132               03.0000000000E+02-1.000000000E+03+
*       3.5100000000E+04               0
GRID*               3133               0-1.353583912E-12-1.000000000E+03+
*       3.4800000000E+04               0
GRID*               3134               06.0000000000E+02-1.000000000E+03+
*       3.4800000000E+04               0
GRID*               3135               06.0000000000E+02-1.000000000E+03+
*       3.4200000000E+04               0
GRID*               3136               03.0000000000E+02-1.000000000E+03+
*       3.4500000000E+04               0
GRID*               3137               06.0000000000E+02-1.000000000E+03+
*       3.3600000000E+04               0
GRID*               3138               03.0000000000E+02-1.000000000E+03+
*       3.3900000000E+04               0
GRID*               3139               06.0000000000E+02-1.000000000E+03+
*       3.3000000000E+04               0
GRID*               3140               03.0000000000E+02-1.000000000E+03+
*       3.3300000000E+04               0
GRID*               3141               06.0000000000E+02-1.000000000E+03+
*       3.2400000000E+04               0
GRID*               3142               03.0000000000E+02-1.000000000E+03+
*       3.2700000000E+04               0
GRID*               3143               06.0000000000E+02-1.000000000E+03+
*       3.1800000000E+04               0
GRID*               3144               03.0000000000E+02-1.000000000E+03+
*       3.2100000000E+04               0
GRID*               3145               06.0000000000E+02-1.000000000E+03+
*       3.1200000000E+04               0
GRID*               3146               03.0000000000E+02-1.000000000E+03+
*       3.1500000000E+04               0
GRID*               3147               06.0000000000E+02-1.000000000E+03+
*       3.0600000000E+04               0
GRID*               3148               03.0000000000E+02-1.000000000E+03+
*       3.0900000000E+04               0
GRID*               3149               06.0000000000E+02-1.000000000E+03+
*       3.0000000000E+04               0
GRID*               3150               03.0000000000E+02-1.000000000E+03+
*       3.0300000000E+04               0
GRID*               3151               06.0000000000E+02-1.000000000E+03+
*       2.9400000000E+04               0
GRID*               3152               03.0000000000E+02-1.000000000E+03+
*       2.9700000000E+04               0
GRID*               3153               06.0000000000E+02-1.000000000E+03+
*       2.8800000000E+04               0
GRID*               3154               03.0000000000E+02-1.000000000E+03+
*       2.9100000000E+04               0
GRID*               3155               06.0000000000E+02-1.000000000E+03+
*       2.8200000000E+04               0
GRID*               3156               03.0000000000E+02-1.000000000E+03+
*       2.8500000000E+04               0
GRID*               3157               06.0000000000E+02-1.000000000E+03+
*       2.7600000000E+04               0
GRID*               3158               03.0000000000E+02-1.000000000E+03+
*       2.7900000000E+04               0
GRID*               3159               06.0000000000E+02-1.000000000E+03+
*       2.7000000000E+04               0
GRID*               3160               03.0000000000E+02-1.000000000E+03+
*       2.7300000000E+04               0
GRID*               3161               06.0000000000E+02-1.000000000E+03+
*       2.6400000000E+04               0
GRID*               3162               03.0000000000E+02-1.000000000E+03+
*       2.6700000000E+04               0
GRID*               3163               06.0000000000E+02-1.000000000E+03+
*       2.5800000000E+04               0
GRID*               3164               03.0000000000E+02-1.000000000E+03+
*       2.6100000000E+04               0
GRID*               3165               06.0000000000E+02-1.000000000E+03+
*       2.5200000000E+04               0
GRID*               3166               03.0000000000E+02-1.000000000E+03+
*       2.5500000000E+04               0
GRID*               3167               06.0000000000E+02-1.000000000E+03+
*       2.4600000000E+04               0
GRID*               3168               03.0000000000E+02-1.000000000E+03+
*       2.4900000000E+04               0
GRID*               3169               06.0000000000E+02-1.000000000E+03+
*       2.4000000000E+04               0
GRID*               3170               03.0000000000E+02-1.000000000E+03+
*       2.4300000000E+04               0
GRID*               3171               06.0000000000E+02-1.000000000E+03+
*       2.3400000000E+04               0
GRID*               3172               03.0000000000E+02-1.000000000E+03+
*       2.3700000000E+04               0
GRID*               3173               06.0000000000E+02-1.000000000E+03+
*       2.2800000000E+04               0
GRID*               3174               03.0000000000E+02-1.000000000E+03+
*       2.3100000000E+04               0
GRID*               3175               06.0000000000E+02-1.000000000E+03+
*       2.2200000000E+04               0
GRID*               3176               03.0000000000E+02-1.000000000E+03+
*       2.2500000000E+04               0
GRID*               3177               06.0000000000E+02-1.000000000E+03+
*       2.1600000000E+04               0
GRID*               3178               03.0000000000E+02-1.000000000E+03+
*       2.1900000000E+04               0
GRID*               3179               06.0000000000E+02-1.000000000E+03+
*       2.1000000000E+04               0
GRID*               3180               03.0000000000E+02-1.000000000E+03+
*       2.1300000000E+04               0
GRID*               3181               06.0000000000E+02-1.000000000E+03+
*       2.0400000000E+04               0
GRID*               3182               03.0000000000E+02-1.000000000E+03+
*       2.0700000000E+04               0
GRID*               3183               06.0000000000E+02-1.000000000E+03+
*       1.9800000000E+04               0
GRID*               3184               03.0000000000E+02-1.000000000E+03+
*       2.0100000000E+04               0
GRID*               3185               03.0000000000E+02-1.000000000E+03+
*       1.9500000000E+04               0
GRID*               3186               0-5.570655048E-12-1.000000000E+03+
*       3.4200000000E+04               0
GRID*               3187               0-4.945832188E-12-1.000000000E+03+
*       3.3000000000E+04               0
GRID*               3188               0-1.337596700E-12-1.000000000E+03+
*       3.3600000000E+04               0
GRID*               3189               09.2370555649E-14-1.000000000E+03+
*       3.1200000000E+04               0
GRID*               3190               02.3092638912E-13-1.000000000E+03+
*       3.1800000000E+04               0
GRID*               3191               01.5871748360E-12-1.000000000E+03+
*       3.2400000000E+04               0
GRID*               3192               0-1.268318783E-12-1.000000000E+03+
*       2.8800000000E+04               0
GRID*               3193               0-5.499600775E-12-1.000000000E+03+
*       2.8200000000E+04               0
GRID*               3194               0-6.205937098E-12-1.000000000E+03+
*       2.7000000000E+04               0
GRID*               3195               0-2.057021220E-12-1.000000000E+03+
*       2.7600000000E+04               0
GRID*               3196               05.2580162446E-13-1.000000000E+03+
*       3.0600000000E+04               0
GRID*               3197               0-3.410605132E-13-1.000000000E+03+
*       3.0000000000E+04               0
GRID*               3198               06.1817218011E-13-1.000000000E+03+
*       2.9400000000E+04               0
GRID*               3199               01.5631940187E-13-1.000000000E+03+
*       1.9800000000E+04               0
GRID*               3200               0-6.889877113E-12-1.000000000E+03+
*       2.1000000000E+04               0
GRID*               3201               0-1.857181076E-12-1.000000000E+03+
*       2.0400000000E+04               0
GRID*               3202               0-9.308109838E-13-1.000000000E+03+
*       2.2800000000E+04               0
GRID*               3203               09.7344354799E-13-1.000000000E+03+
*       2.2200000000E+04               0
GRID*               3204               0-3.436362306E-12-1.000000000E+03+
*       2.1600000000E+04               0
GRID*               3205               0-1.101341240E-13-1.000000000E+03+
*       2.4600000000E+04               0
GRID*               3206               0-1.513233983E-13-1.000000000E+03+
*       2.4000000000E+04               0
GRID*               3207               01.1013412404E-13-1.000000000E+03+
*       2.3400000000E+04               0
GRID*               3208               0-1.451283538E-12-1.000000000E+03+
*       2.6400000000E+04               0
GRID*               3209               09.2370555649E-13-1.000000000E+03+
*       2.5800000000E+04               0
GRID*               3210               0-2.664535259E-13-1.000000000E+03+
*       2.5200000000E+04               0
GRID*               3245               09.0000000000E+020.0000000000E+00+
*       1.8600000000E+04               0
GRID*               3246               03.0000000000E+020.0000000000E+00+
*       1.8600000000E+04               0
GRID*               3247               0-3.000000000E+020.0000000000E+00+
*       1.8600000000E+04               0
GRID*               3248               0-9.000000000E+020.0000000000E+00+
*       1.8600000000E+04               0
GRID*               3249               0-9.000000000E+020.0000000000E+00+
*       1.9200000000E+04               0
GRID*               3250               0-9.000000000E+020.0000000000E+00+
*       1.9800000000E+04               0
GRID*               3251               0-9.000000000E+020.0000000000E+00+
*       2.0400000000E+04               0
GRID*               3252               0-9.000000000E+020.0000000000E+00+
*       2.1000000000E+04               0
GRID*               3253               0-9.000000000E+020.0000000000E+00+
*       2.1600000000E+04               0
GRID*               3254               0-9.000000000E+020.0000000000E+00+
*       2.2200000000E+04               0
GRID*               3255               0-9.000000000E+020.0000000000E+00+
*       2.2800000000E+04               0
GRID*               3256               0-9.000000000E+020.0000000000E+00+
*       2.3400000000E+04               0
GRID*               3257               0-9.000000000E+020.0000000000E+00+
*       2.4000000000E+04               0
GRID*               3258               0-9.000000000E+020.0000000000E+00+
*       2.4600000000E+04               0
GRID*               3259               0-9.000000000E+020.0000000000E+00+
*       2.5200000000E+04               0
GRID*               3260               0-9.000000000E+020.0000000000E+00+
*       2.5800000000E+04               0
GRID*               3261               0-9.000000000E+020.0000000000E+00+
*       2.6400000000E+04               0
GRID*               3262               0-9.000000000E+020.0000000000E+00+
*       2.7000000000E+04               0
GRID*               3263               0-9.000000000E+020.0000000000E+00+
*       2.7600000000E+04               0
GRID*               3264               0-9.000000000E+020.0000000000E+00+
*       2.8200000000E+04               0
GRID*               3265               0-9.000000000E+020.0000000000E+00+
*       2.8800000000E+04               0
GRID*               3266               0-9.000000000E+020.0000000000E+00+
*       2.9400000000E+04               0
GRID*               3267               0-9.000000000E+020.0000000000E+00+
*       3.0000000000E+04               0
GRID*               3268               0-9.000000000E+020.0000000000E+00+
*       3.0600000000E+04               0
GRID*               3269               0-9.000000000E+020.0000000000E+00+
*       3.1200000000E+04               0
GRID*               3270               0-9.000000000E+020.0000000000E+00+
*       3.1800000000E+04               0
GRID*               3271               0-9.000000000E+020.0000000000E+00+
*       3.2400000000E+04               0
GRID*               3272               0-9.000000000E+020.0000000000E+00+
*       3.3000000000E+04               0
GRID*               3273               0-9.000000000E+020.0000000000E+00+
*       3.3600000000E+04               0
GRID*               3274               0-9.000000000E+020.0000000000E+00+
*       3.4200000000E+04               0
GRID*               3275               0-9.000000000E+020.0000000000E+00+
*       3.4800000000E+04               0
GRID*               3276               0-9.000000000E+020.0000000000E+00+
*       3.5400000000E+04               0
GRID*               3277               0-3.000000000E+020.0000000000E+00+
*       3.5400000000E+04               0
GRID*               3278               03.0000000000E+020.0000000000E+00+
*       3.5400000000E+04               0
GRID*               3279               09.0000000000E+020.0000000000E+00+
*       3.5400000000E+04               0
GRID*               3280               09.0000000000E+020.0000000000E+00+
*       3.4800000000E+04               0
GRID*               3281               09.0000000000E+020.0000000000E+00+
*       3.4200000000E+04               0
GRID*               3282               09.0000000000E+020.0000000000E+00+
*       3.3600000000E+04               0
GRID*               3283               09.0000000000E+020.0000000000E+00+
*       3.3000000000E+04               0
GRID*               3284               09.0000000000E+020.0000000000E+00+
*       3.2400000000E+04               0
GRID*               3285               09.0000000000E+020.0000000000E+00+
*       3.1800000000E+04               0
GRID*               3286               09.0000000000E+020.0000000000E+00+
*       3.1200000000E+04               0
GRID*               3287               09.0000000000E+020.0000000000E+00+
*       3.0600000000E+04               0
GRID*               3288               09.0000000000E+020.0000000000E+00+
*       3.0000000000E+04               0
GRID*               3289               09.0000000000E+020.0000000000E+00+
*       2.9400000000E+04               0
GRID*               3290               09.0000000000E+020.0000000000E+00+
*       2.8800000000E+04               0
GRID*               3291               09.0000000000E+020.0000000000E+00+
*       2.8200000000E+04               0
GRID*               3292               09.0000000000E+020.0000000000E+00+
*       2.7600000000E+04               0
GRID*               3293               09.0000000000E+020.0000000000E+00+
*       2.7000000000E+04               0
GRID*               3294               09.0000000000E+020.0000000000E+00+
*       2.6400000000E+04               0
GRID*               3295               09.0000000000E+020.0000000000E+00+
*       2.5800000000E+04               0
GRID*               3296               09.0000000000E+020.0000000000E+00+
*       2.5200000000E+04               0
GRID*               3297               09.0000000000E+020.0000000000E+00+
*       2.4600000000E+04               0
GRID*               3298               09.0000000000E+020.0000000000E+00+
*       2.4000000000E+04               0
GRID*               3299               09.0000000000E+020.0000000000E+00+
*       2.3400000000E+04               0
GRID*               3300               09.0000000000E+020.0000000000E+00+
*       2.2800000000E+04               0
GRID*               3301               09.0000000000E+020.0000000000E+00+
*       2.2200000000E+04               0
GRID*               3302               09.0000000000E+020.0000000000E+00+
*       2.1600000000E+04               0
GRID*               3303               09.0000000000E+020.0000000000E+00+
*       2.1000000000E+04               0
GRID*               3304               09.0000000000E+020.0000000000E+00+
*       2.0400000000E+04               0
GRID*               3305               09.0000000000E+020.0000000000E+00+
*       1.9800000000E+04               0
GRID*               3306               09.0000000000E+020.0000000000E+00+
*       1.9200000000E+04               0
GRID*               3307               03.0000000000E+020.0000000000E+00+
*       1.9200000000E+04               0
GRID*               3308               0-3.000000000E+020.0000000000E+00+
*       1.9200000000E+04               0
GRID*               3309               0-3.000000000E+020.0000000000E+00+
*       1.9800000000E+04               0
GRID*               3310               0-3.000000000E+020.0000000000E+00+
*       2.0400000000E+04               0
GRID*               3311               0-3.000000000E+020.0000000000E+00+
*       2.1000000000E+04               0
GRID*               3312               0-3.000000000E+020.0000000000E+00+
*       2.1600000000E+04               0
GRID*               3313               0-3.000000000E+020.0000000000E+00+
*       2.2200000000E+04               0
GRID*               3314               0-3.000000000E+020.0000000000E+00+
*       2.2800000000E+04               0
GRID*               3315               0-3.000000000E+020.0000000000E+00+
*       2.3400000000E+04               0
GRID*               3316               0-3.000000000E+020.0000000000E+00+
*       2.4000000000E+04               0
GRID*               3317               0-3.000000000E+020.0000000000E+00+
*       2.4600000000E+04               0
GRID*               3318               0-3.000000000E+020.0000000000E+00+
*       2.5200000000E+04               0
GRID*               3319               0-3.000000000E+020.0000000000E+00+
*       2.5800000000E+04               0
GRID*               3320               0-3.000000000E+020.0000000000E+00+
*       2.6400000000E+04               0
GRID*               3321               0-3.000000000E+020.0000000000E+00+
*       2.7000000000E+04               0
GRID*               3322               0-3.000000000E+020.0000000000E+00+
*       2.7600000000E+04               0
GRID*               3323               0-3.000000000E+020.0000000000E+00+
*       2.8200000000E+04               0
GRID*               3324               0-3.000000000E+020.0000000000E+00+
*       2.8800000000E+04               0
GRID*               3325               0-3.000000000E+020.0000000000E+00+
*       2.9400000000E+04               0
GRID*               3326               0-3.000000000E+020.0000000000E+00+
*       3.0000000000E+04               0
GRID*               3327               0-3.000000000E+020.0000000000E+00+
*       3.0600000000E+04               0
GRID*               3328               0-3.000000000E+020.0000000000E+00+
*       3.1200000000E+04               0
GRID*               3329               0-3.000000000E+020.0000000000E+00+
*       3.1800000000E+04               0
GRID*               3330               0-3.000000000E+020.0000000000E+00+
*       3.2400000000E+04               0
GRID*               3331               0-3.000000000E+020.0000000000E+00+
*       3.3000000000E+04               0
GRID*               3332               0-3.000000000E+020.0000000000E+00+
*       3.3600000000E+04               0
GRID*               3333               0-3.000000000E+020.0000000000E+00+
*       3.4200000000E+04               0
GRID*               3334               0-3.000000000E+020.0000000000E+00+
*       3.4800000000E+04               0
GRID*               3335               03.0000000000E+020.0000000000E+00+
*       3.4800000000E+04               0
GRID*               3336               03.0000000000E+020.0000000000E+00+
*       3.4200000000E+04               0
GRID*               3337               03.0000000000E+020.0000000000E+00+
*       3.3600000000E+04               0
GRID*               3338               03.0000000000E+020.0000000000E+00+
*       3.3000000000E+04               0
GRID*               3339               03.0000000000E+020.0000000000E+00+
*       3.2400000000E+04               0
GRID*               3340               03.0000000000E+020.0000000000E+00+
*       3.1800000000E+04               0
GRID*               3341               03.0000000000E+020.0000000000E+00+
*       3.1200000000E+04               0
GRID*               3342               03.0000000000E+020.0000000000E+00+
*       3.0600000000E+04               0
GRID*               3343               03.0000000000E+020.0000000000E+00+
*       3.0000000000E+04               0
GRID*               3344               03.0000000000E+020.0000000000E+00+
*       2.9400000000E+04               0
GRID*               3345               03.0000000000E+020.0000000000E+00+
*       2.8800000000E+04               0
GRID*               3346               03.0000000000E+020.0000000000E+00+
*       2.8200000000E+04               0
GRID*               3347               03.0000000000E+020.0000000000E+00+
*       2.7600000000E+04               0
GRID*               3348               03.0000000000E+020.0000000000E+00+
*       2.7000000000E+04               0
GRID*               3349               03.0000000000E+020.0000000000E+00+
*       2.6400000000E+04               0
GRID*               3350               03.0000000000E+020.0000000000E+00+
*       2.5800000000E+04               0
GRID*               3351               03.0000000000E+020.0000000000E+00+
*       2.5200000000E+04               0
GRID*               3352               03.0000000000E+020.0000000000E+00+
*       2.4600000000E+04               0
GRID*               3353               03.0000000000E+020.0000000000E+00+
*       2.4000000000E+04               0
GRID*               3354               03.0000000000E+020.0000000000E+00+
*       2.3400000000E+04               0
GRID*               3355               03.0000000000E+020.0000000000E+00+
*       2.2800000000E+04               0
GRID*               3356               03.0000000000E+020.0000000000E+00+
*       2.2200000000E+04               0
GRID*               3357               03.0000000000E+020.0000000000E+00+
*       2.1600000000E+04               0
GRID*               3358               03.0000000000E+020.0000000000E+00+
*       2.1000000000E+04               0
GRID*               3359               03.0000000000E+020.0000000000E+00+
*       2.0400000000E+04               0
GRID*               3360               03.0000000000E+020.0000000000E+00+
*       1.9800000000E+04               0
GRID*               3361               01.2000000000E+030.0000000000E+00+
*       1.8600000000E+04               0
GRID*               3362               09.0000000000E+020.0000000000E+00+
*       1.8300000000E+04               0
GRID*               3363               03.0000000000E+020.0000000000E+00+
*       1.8300000000E+04               0
GRID*               3364               06.0000000000E+020.0000000000E+00+
*       1.8600000000E+04               0
GRID*               3365               0-3.000000000E+020.0000000000E+00+
*       1.8300000000E+04               0
GRID*               3366               01.9184653866E-130.0000000000E+00+
*       1.8600000000E+04               0
GRID*               3367               0-9.000000000E+020.0000000000E+00+
*       1.8300000000E+04               0
GRID*               3368               0-6.000000000E+020.0000000000E+00+
*       1.8600000000E+04               0
GRID*               3369               0-1.200000000E+030.0000000000E+00+
*       1.8600000000E+04               0
GRID*               3370               0-1.200000000E+030.0000000000E+00+
*       1.9200000000E+04               0
GRID*               3371               0-9.000000000E+020.0000000000E+00+
*       1.8900000000E+04               0
GRID*               3372               0-1.200000000E+030.0000000000E+00+
*       1.9800000000E+04               0
GRID*               3373               0-9.000000000E+020.0000000000E+00+
*       1.9500000000E+04               0
GRID*               3374               0-1.200000000E+030.0000000000E+00+
*       2.0400000000E+04               0
GRID*               3375               0-9.000000000E+020.0000000000E+00+
*       2.0100000000E+04               0
GRID*               3376               0-1.200000000E+030.0000000000E+00+
*       2.1000000000E+04               0
GRID*               3377               0-9.000000000E+020.0000000000E+00+
*       2.0700000000E+04               0
GRID*               3378               0-1.200000000E+030.0000000000E+00+
*       2.1600000000E+04               0
GRID*               3379               0-9.000000000E+020.0000000000E+00+
*       2.1300000000E+04               0
GRID*               3380               0-1.200000000E+030.0000000000E+00+
*       2.2200000000E+04               0
GRID*               3381               0-9.000000000E+020.0000000000E+00+
*       2.1900000000E+04               0
GRID*               3382               0-1.200000000E+030.0000000000E+00+
*       2.2800000000E+04               0
GRID*               3383               0-9.000000000E+020.0000000000E+00+
*       2.2500000000E+04               0
GRID*               3384               0-1.200000000E+030.0000000000E+00+
*       2.3400000000E+04               0
GRID*               3385               0-9.000000000E+020.0000000000E+00+
*       2.3100000000E+04               0
GRID*               3386               0-1.200000000E+030.0000000000E+00+
*       2.4000000000E+04               0
GRID*               3387               0-9.000000000E+020.0000000000E+00+
*       2.3700000000E+04               0
GRID*               3388               0-1.200000000E+030.0000000000E+00+
*       2.4600000000E+04               0
GRID*               3389               0-9.000000000E+020.0000000000E+00+
*       2.4300000000E+04               0
GRID*               3390               0-1.200000000E+030.0000000000E+00+
*       2.5200000000E+04               0
GRID*               3391               0-9.000000000E+020.0000000000E+00+
*       2.4900000000E+04               0
GRID*               3392               0-1.200000000E+030.0000000000E+00+
*       2.5800000000E+04               0
GRID*               3393               0-9.000000000E+020.0000000000E+00+
*       2.5500000000E+04               0
GRID*               3394               0-1.200000000E+030.0000000000E+00+
*       2.6400000000E+04               0
GRID*               3395               0-9.000000000E+020.0000000000E+00+
*       2.6100000000E+04               0
GRID*               3396               0-1.200000000E+030.0000000000E+00+
*       2.7000000000E+04               0
GRID*               3397               0-9.000000000E+020.0000000000E+00+
*       2.6700000000E+04               0
GRID*               3398               0-1.200000000E+030.0000000000E+00+
*       2.7600000000E+04               0
GRID*               3399               0-9.000000000E+020.0000000000E+00+
*       2.7300000000E+04               0
GRID*               3400               0-1.200000000E+030.0000000000E+00+
*       2.8200000000E+04               0
GRID*               3401               0-9.000000000E+020.0000000000E+00+
*       2.7900000000E+04               0
GRID*               3402               0-1.200000000E+030.0000000000E+00+
*       2.8800000000E+04               0
GRID*               3403               0-9.000000000E+020.0000000000E+00+
*       2.8500000000E+04               0
GRID*               3404               0-1.200000000E+030.0000000000E+00+
*       2.9400000000E+04               0
GRID*               3405               0-9.000000000E+020.0000000000E+00+
*       2.9100000000E+04               0
GRID*               3406               0-1.200000000E+030.0000000000E+00+
*       3.0000000000E+04               0
GRID*               3407               0-9.000000000E+020.0000000000E+00+
*       2.9700000000E+04               0
GRID*               3408               0-1.200000000E+030.0000000000E+00+
*       3.0600000000E+04               0
GRID*               3409               0-9.000000000E+020.0000000000E+00+
*       3.0300000000E+04               0
GRID*               3410               0-1.200000000E+030.0000000000E+00+
*       3.1200000000E+04               0
GRID*               3411               0-9.000000000E+020.0000000000E+00+
*       3.0900000000E+04               0
GRID*               3412               0-1.200000000E+030.0000000000E+00+
*       3.1800000000E+04               0
GRID*               3413               0-9.000000000E+020.0000000000E+00+
*       3.1500000000E+04               0
GRID*               3414               0-1.200000000E+030.0000000000E+00+
*       3.2400000000E+04               0
GRID*               3415               0-9.000000000E+020.0000000000E+00+
*       3.2100000000E+04               0
GRID*               3416               0-1.200000000E+030.0000000000E+00+
*       3.3000000000E+04               0
GRID*               3417               0-9.000000000E+020.0000000000E+00+
*       3.2700000000E+04               0
GRID*               3418               0-1.200000000E+030.0000000000E+00+
*       3.3600000000E+04               0
GRID*               3419               0-9.000000000E+020.0000000000E+00+
*       3.3300000000E+04               0
GRID*               3420               0-1.200000000E+030.0000000000E+00+
*       3.4200000000E+04               0
GRID*               3421               0-9.000000000E+020.0000000000E+00+
*       3.3900000000E+04               0
GRID*               3422               0-1.200000000E+030.0000000000E+00+
*       3.4800000000E+04               0
GRID*               3423               0-9.000000000E+020.0000000000E+00+
*       3.4500000000E+04               0
GRID*               3424               0-1.200000000E+030.0000000000E+00+
*       3.5400000000E+04               0
GRID*               3425               0-9.000000000E+020.0000000000E+00+
*       3.5100000000E+04               0
GRID*               3426               0-9.000000000E+020.0000000000E+00+
*       3.5700000000E+04               0
GRID*               3427               0-3.000000000E+020.0000000000E+00+
*       3.5700000000E+04               0
GRID*               3428               0-6.000000000E+020.0000000000E+00+
*       3.5400000000E+04               0
GRID*               3429               03.0000000000E+020.0000000000E+00+
*       3.5700000000E+04               0
GRID*               3430               0-1.918465387E-130.0000000000E+00+
*       3.5400000000E+04               0
GRID*               3431               09.0000000000E+020.0000000000E+00+
*       3.5700000000E+04               0
GRID*               3432               06.0000000000E+020.0000000000E+00+
*       3.5400000000E+04               0
GRID*               3433               01.2000000000E+030.0000000000E+00+
*       3.5400000000E+04               0
GRID*               3434               01.2000000000E+030.0000000000E+00+
*       3.4800000000E+04               0
GRID*               3435               09.0000000000E+020.0000000000E+00+
*       3.5100000000E+04               0
GRID*               3436               01.2000000000E+030.0000000000E+00+
*       3.4200000000E+04               0
GRID*               3437               09.0000000000E+020.0000000000E+00+
*       3.4500000000E+04               0
GRID*               3438               01.2000000000E+030.0000000000E+00+
*       3.3600000000E+04               0
GRID*               3439               09.0000000000E+020.0000000000E+00+
*       3.3900000000E+04               0
GRID*               3440               01.2000000000E+030.0000000000E+00+
*       3.3000000000E+04               0
GRID*               3441               09.0000000000E+020.0000000000E+00+
*       3.3300000000E+04               0
GRID*               3442               01.2000000000E+030.0000000000E+00+
*       3.2400000000E+04               0
GRID*               3443               09.0000000000E+020.0000000000E+00+
*       3.2700000000E+04               0
GRID*               3444               01.2000000000E+030.0000000000E+00+
*       3.1800000000E+04               0
GRID*               3445               09.0000000000E+020.0000000000E+00+
*       3.2100000000E+04               0
GRID*               3446               01.2000000000E+030.0000000000E+00+
*       3.1200000000E+04               0
GRID*               3447               09.0000000000E+020.0000000000E+00+
*       3.1500000000E+04               0
GRID*               3448               01.2000000000E+030.0000000000E+00+
*       3.0600000000E+04               0
GRID*               3449               09.0000000000E+020.0000000000E+00+
*       3.0900000000E+04               0
GRID*               3450               01.2000000000E+030.0000000000E+00+
*       3.0000000000E+04               0
GRID*               3451               09.0000000000E+020.0000000000E+00+
*       3.0300000000E+04               0
GRID*               3452               01.2000000000E+030.0000000000E+00+
*       2.9400000000E+04               0
GRID*               3453               09.0000000000E+020.0000000000E+00+
*       2.9700000000E+04               0
GRID*               3454               01.2000000000E+030.0000000000E+00+
*       2.8800000000E+04               0
GRID*               3455               09.0000000000E+020.0000000000E+00+
*       2.9100000000E+04               0
GRID*               3456               01.2000000000E+030.0000000000E+00+
*       2.8200000000E+04               0
GRID*               3457               09.0000000000E+020.0000000000E+00+
*       2.8500000000E+04               0
GRID*               3458               01.2000000000E+030.0000000000E+00+
*       2.7600000000E+04               0
GRID*               3459               09.0000000000E+020.0000000000E+00+
*       2.7900000000E+04               0
GRID*               3460               01.2000000000E+030.0000000000E+00+
*       2.7000000000E+04               0
GRID*               3461               09.0000000000E+020.0000000000E+00+
*       2.7300000000E+04               0
GRID*               3462               01.2000000000E+030.0000000000E+00+
*       2.6400000000E+04               0
GRID*               3463               09.0000000000E+020.0000000000E+00+
*       2.6700000000E+04               0
GRID*               3464               01.2000000000E+030.0000000000E+00+
*       2.5800000000E+04               0
GRID*               3465               09.0000000000E+020.0000000000E+00+
*       2.6100000000E+04               0
GRID*               3466               01.2000000000E+030.0000000000E+00+
*       2.5200000000E+04               0
GRID*               3467               09.0000000000E+020.0000000000E+00+
*       2.5500000000E+04               0
GRID*               3468               01.2000000000E+030.0000000000E+00+
*       2.4600000000E+04               0
GRID*               3469               09.0000000000E+020.0000000000E+00+
*       2.4900000000E+04               0
GRID*               3470               01.2000000000E+030.0000000000E+00+
*       2.4000000000E+04               0
GRID*               3471               09.0000000000E+020.0000000000E+00+
*       2.4300000000E+04               0
GRID*               3472               01.2000000000E+030.0000000000E+00+
*       2.3400000000E+04               0
GRID*               3473               09.0000000000E+020.0000000000E+00+
*       2.3700000000E+04               0
GRID*               3474               01.2000000000E+030.0000000000E+00+
*       2.2800000000E+04               0
GRID*               3475               09.0000000000E+020.0000000000E+00+
*       2.3100000000E+04               0
GRID*               3476               01.2000000000E+030.0000000000E+00+
*       2.2200000000E+04               0
GRID*               3477               09.0000000000E+020.0000000000E+00+
*       2.2500000000E+04               0
GRID*               3478               01.2000000000E+030.0000000000E+00+
*       2.1600000000E+04               0
GRID*               3479               09.0000000000E+020.0000000000E+00+
*       2.1900000000E+04               0
GRID*               3480               01.2000000000E+030.0000000000E+00+
*       2.1000000000E+04               0
GRID*               3481               09.0000000000E+020.0000000000E+00+
*       2.1300000000E+04               0
GRID*               3482               01.2000000000E+030.0000000000E+00+
*       2.0400000000E+04               0
GRID*               3483               09.0000000000E+020.0000000000E+00+
*       2.0700000000E+04               0
GRID*               3484               01.2000000000E+030.0000000000E+00+
*       1.9800000000E+04               0
GRID*               3485               09.0000000000E+020.0000000000E+00+
*       2.0100000000E+04               0
GRID*               3486               01.2000000000E+030.0000000000E+00+
*       1.9200000000E+04               0
GRID*               3487               09.0000000000E+020.0000000000E+00+
*       1.9500000000E+04               0
GRID*               3488               09.0000000000E+020.0000000000E+00+
*       1.8900000000E+04               0
GRID*               3489               06.0000000000E+020.0000000000E+00+
*       1.9200000000E+04               0
GRID*               3490               03.0000000000E+020.0000000000E+00+
*       1.8900000000E+04               0
GRID*               3491               0-3.000000000E+020.0000000000E+00+
*       1.8900000000E+04               0
GRID*               3492               0-1.421085472E-140.0000000000E+00+
*       1.9200000000E+04               0
GRID*               3493               0-6.000000000E+020.0000000000E+00+
*       1.9200000000E+04               0
GRID*               3494               0-6.000000000E+020.0000000000E+00+
*       1.9800000000E+04               0
GRID*               3495               0-3.000000000E+020.0000000000E+00+
*       1.9500000000E+04               0
GRID*               3496               0-6.000000000E+020.0000000000E+00+
*       2.0400000000E+04               0
GRID*               3497               0-3.000000000E+020.0000000000E+00+
*       2.0100000000E+04               0
GRID*               3498               0-6.000000000E+020.0000000000E+00+
*       2.1000000000E+04               0
GRID*               3499               0-3.000000000E+020.0000000000E+00+
*       2.0700000000E+04               0
GRID*               3500               0-6.000000000E+020.0000000000E+00+
*       2.1600000000E+04               0
GRID*               3501               0-3.000000000E+020.0000000000E+00+
*       2.1300000000E+04               0
GRID*               3502               0-6.000000000E+020.0000000000E+00+
*       2.2200000000E+04               0
GRID*               3503               0-3.000000000E+020.0000000000E+00+
*       2.1900000000E+04               0
GRID*               3504               0-6.000000000E+020.0000000000E+00+
*       2.2800000000E+04               0
GRID*               3505               0-3.000000000E+020.0000000000E+00+
*       2.2500000000E+04               0
GRID*               3506               0-6.000000000E+020.0000000000E+00+
*       2.3400000000E+04               0
GRID*               3507               0-3.000000000E+020.0000000000E+00+
*       2.3100000000E+04               0
GRID*               3508               0-6.000000000E+020.0000000000E+00+
*       2.4000000000E+04               0
GRID*               3509               0-3.000000000E+020.0000000000E+00+
*       2.3700000000E+04               0
GRID*               3510               0-6.000000000E+020.0000000000E+00+
*       2.4600000000E+04               0
GRID*               3511               0-3.000000000E+020.0000000000E+00+
*       2.4300000000E+04               0
GRID*               3512               0-6.000000000E+020.0000000000E+00+
*       2.5200000000E+04               0
GRID*               3513               0-3.000000000E+020.0000000000E+00+
*       2.4900000000E+04               0
GRID*               3514               0-6.000000000E+020.0000000000E+00+
*       2.5800000000E+04               0
GRID*               3515               0-3.000000000E+020.0000000000E+00+
*       2.5500000000E+04               0
GRID*               3516               0-6.000000000E+020.0000000000E+00+
*       2.6400000000E+04               0
GRID*               3517               0-3.000000000E+020.0000000000E+00+
*       2.6100000000E+04               0
GRID*               3518               0-6.000000000E+020.0000000000E+00+
*       2.7000000000E+04               0
GRID*               3519               0-3.000000000E+020.0000000000E+00+
*       2.6700000000E+04               0
GRID*               3520               0-6.000000000E+020.0000000000E+00+
*       2.7600000000E+04               0
GRID*               3521               0-3.000000000E+020.0000000000E+00+
*       2.7300000000E+04               0
GRID*               3522               0-6.000000000E+020.0000000000E+00+
*       2.8200000000E+04               0
GRID*               3523               0-3.000000000E+020.0000000000E+00+
*       2.7900000000E+04               0
GRID*               3524               0-6.000000000E+020.0000000000E+00+
*       2.8800000000E+04               0
GRID*               3525               0-3.000000000E+020.0000000000E+00+
*       2.8500000000E+04               0
GRID*               3526               0-6.000000000E+020.0000000000E+00+
*       2.9400000000E+04               0
GRID*               3527               0-3.000000000E+020.0000000000E+00+
*       2.9100000000E+04               0
GRID*               3528               0-6.000000000E+020.0000000000E+00+
*       3.0000000000E+04               0
GRID*               3529               0-3.000000000E+020.0000000000E+00+
*       2.9700000000E+04               0
GRID*               3530               0-6.000000000E+020.0000000000E+00+
*       3.0600000000E+04               0
GRID*               3531               0-3.000000000E+020.0000000000E+00+
*       3.0300000000E+04               0
GRID*               3532               0-6.000000000E+020.0000000000E+00+
*       3.1200000000E+04               0
GRID*               3533               0-3.000000000E+020.0000000000E+00+
*       3.0900000000E+04               0
GRID*               3534               0-6.000000000E+020.0000000000E+00+
*       3.1800000000E+04               0
GRID*               3535               0-3.000000000E+020.0000000000E+00+
*       3.1500000000E+04               0
GRID*               3536               0-6.000000000E+020.0000000000E+00+
*       3.2400000000E+04               0
GRID*               3537               0-3.000000000E+020.0000000000E+00+
*       3.2100000000E+04               0
GRID*               3538               0-6.000000000E+020.0000000000E+00+
*       3.3000000000E+04               0
GRID*               3539               0-3.000000000E+020.0000000000E+00+
*       3.2700000000E+04               0
GRID*               3540               0-6.000000000E+020.0000000000E+00+
*       3.3600000000E+04               0
GRID*               3541               0-3.000000000E+020.0000000000E+00+
*       3.3300000000E+04               0
GRID*               3542               0-6.000000000E+020.0000000000E+00+
*       3.4200000000E+04               0
GRID*               3543               0-3.000000000E+020.0000000000E+00+
*       3.3900000000E+04               0
GRID*               3544               0-6.000000000E+020.0000000000E+00+
*       3.4800000000E+04               0
GRID*               3545               0-3.000000000E+020.0000000000E+00+
*       3.4500000000E+04               0
GRID*               3546               0-3.000000000E+020.0000000000E+00+
*       3.5100000000E+04               0
GRID*               3547               03.0000000000E+020.0000000000E+00+
*       3.5100000000E+04               0
GRID*               3548               01.4210854715E-140.0000000000E+00+
*       3.4800000000E+04               0
GRID*               3549               06.0000000000E+020.0000000000E+00+
*       3.4800000000E+04               0
GRID*               3550               06.0000000000E+020.0000000000E+00+
*       3.4200000000E+04               0
GRID*               3551               03.0000000000E+020.0000000000E+00+
*       3.4500000000E+04               0
GRID*               3552               06.0000000000E+020.0000000000E+00+
*       3.3600000000E+04               0
GRID*               3553               03.0000000000E+020.0000000000E+00+
*       3.3900000000E+04               0
GRID*               3554               06.0000000000E+020.0000000000E+00+
*       3.3000000000E+04               0
GRID*               3555               03.0000000000E+020.0000000000E+00+
*       3.3300000000E+04               0
GRID*               3556               06.0000000000E+020.0000000000E+00+
*       3.2400000000E+04               0
GRID*               3557               03.0000000000E+020.0000000000E+00+
*       3.2700000000E+04               0
GRID*               3558               06.0000000000E+020.0000000000E+00+
*       3.1800000000E+04               0
GRID*               3559               03.0000000000E+020.0000000000E+00+
*       3.2100000000E+04               0
GRID*               3560               06.0000000000E+020.0000000000E+00+
*       3.1200000000E+04               0
GRID*               3561               03.0000000000E+020.0000000000E+00+
*       3.1500000000E+04               0
GRID*               3562               06.0000000000E+020.0000000000E+00+
*       3.0600000000E+04               0
GRID*               3563               03.0000000000E+020.0000000000E+00+
*       3.0900000000E+04               0
GRID*               3564               06.0000000000E+020.0000000000E+00+
*       3.0000000000E+04               0
GRID*               3565               03.0000000000E+020.0000000000E+00+
*       3.0300000000E+04               0
GRID*               3566               06.0000000000E+020.0000000000E+00+
*       2.9400000000E+04               0
GRID*               3567               03.0000000000E+020.0000000000E+00+
*       2.9700000000E+04               0
GRID*               3568               06.0000000000E+020.0000000000E+00+
*       2.8800000000E+04               0
GRID*               3569               03.0000000000E+020.0000000000E+00+
*       2.9100000000E+04               0
GRID*               3570               06.0000000000E+020.0000000000E+00+
*       2.8200000000E+04               0
GRID*               3571               03.0000000000E+020.0000000000E+00+
*       2.8500000000E+04               0
GRID*               3572               06.0000000000E+020.0000000000E+00+
*       2.7600000000E+04               0
GRID*               3573               03.0000000000E+020.0000000000E+00+
*       2.7900000000E+04               0
GRID*               3574               06.0000000000E+020.0000000000E+00+
*       2.7000000000E+04               0
GRID*               3575               03.0000000000E+020.0000000000E+00+
*       2.7300000000E+04               0
GRID*               3576               06.0000000000E+020.0000000000E+00+
*       2.6400000000E+04               0
GRID*               3577               03.0000000000E+020.0000000000E+00+
*       2.6700000000E+04               0
GRID*               3578               06.0000000000E+020.0000000000E+00+
*       2.5800000000E+04               0
GRID*               3579               03.0000000000E+020.0000000000E+00+
*       2.6100000000E+04               0
GRID*               3580               06.0000000000E+020.0000000000E+00+
*       2.5200000000E+04               0
GRID*               3581               03.0000000000E+020.0000000000E+00+
*       2.5500000000E+04               0
GRID*               3582               06.0000000000E+020.0000000000E+00+
*       2.4600000000E+04               0
GRID*               3583               03.0000000000E+020.0000000000E+00+
*       2.4900000000E+04               0
GRID*               3584               06.0000000000E+020.0000000000E+00+
*       2.4000000000E+04               0
GRID*               3585               03.0000000000E+020.0000000000E+00+
*       2.4300000000E+04               0
GRID*               3586               06.0000000000E+020.0000000000E+00+
*       2.3400000000E+04               0
GRID*               3587               03.0000000000E+020.0000000000E+00+
*       2.3700000000E+04               0
GRID*               3588               06.0000000000E+020.0000000000E+00+
*       2.2800000000E+04               0
GRID*               3589               03.0000000000E+020.0000000000E+00+
*       2.3100000000E+04               0
GRID*               3590               06.0000000000E+020.0000000000E+00+
*       2.2200000000E+04               0
GRID*               3591               03.0000000000E+020.0000000000E+00+
*       2.2500000000E+04               0
GRID*               3592               06.0000000000E+020.0000000000E+00+
*       2.1600000000E+04               0
GRID*               3593               03.0000000000E+020.0000000000E+00+
*       2.1900000000E+04               0
GRID*               3594               06.0000000000E+020.0000000000E+00+
*       2.1000000000E+04               0
GRID*               3595               03.0000000000E+020.0000000000E+00+
*       2.1300000000E+04               0
GRID*               3596               06.0000000000E+020.0000000000E+00+
*       2.0400000000E+04               0
GRID*               3597               03.0000000000E+020.0000000000E+00+
*       2.0700000000E+04               0
GRID*               3598               06.0000000000E+020.0000000000E+00+
*       1.9800000000E+04               0
GRID*               3599               03.0000000000E+020.0000000000E+00+
*       2.0100000000E+04               0
GRID*               3600               03.0000000000E+020.0000000000E+00+
*       1.9500000000E+04               0
GRID*               3601               0-3.552713679E-140.0000000000E+00+
*       3.4200000000E+04               0
GRID*               3602               00.0000000000E+000.0000000000E+00+
*       3.3000000000E+04               0
GRID*               3603               0-5.950795412E-140.0000000000E+00+
*       3.3600000000E+04               0
GRID*               3604               0-1.421085472E-140.0000000000E+00+
*       3.1200000000E+04               0
GRID*               3605               03.5527136788E-140.0000000000E+00+
*       3.1800000000E+04               0
GRID*               3606               05.9507954120E-140.0000000000E+00+
*       3.2400000000E+04               0
GRID*               3607               01.4210854715E-140.0000000000E+00+
*       2.8800000000E+04               0
GRID*               3608               0-3.552713679E-140.0000000000E+00+
*       2.8200000000E+04               0
GRID*               3609               00.0000000000E+000.0000000000E+00+
*       2.7000000000E+04               0
GRID*               3610               0-5.950795412E-140.0000000000E+00+
*       2.7600000000E+04               0
GRID*               3611               01.9184653866E-130.0000000000E+00+
*       3.0600000000E+04               0
GRID*               3612               00.0000000000E+000.0000000000E+00+
*       3.0000000000E+04               0
GRID*               3613               0-1.918465387E-130.0000000000E+00+
*       2.9400000000E+04               0
GRID*               3614               03.5527136788E-140.0000000000E+00+
*       1.9800000000E+04               0
GRID*               3615               0-1.732587407E-130.0000000000E+00+
*       2.1000000000E+04               0
GRID*               3616               0-1.643130076E-130.0000000000E+00+
*       2.0400000000E+04               0
GRID*               3617               0-1.456612608E-130.0000000000E+00+
*       2.2800000000E+04               0
GRID*               3618               0-3.552713679E-140.0000000000E+00+
*       2.2200000000E+04               0
GRID*               3619               01.6875389974E-140.0000000000E+00+
*       2.1600000000E+04               0
GRID*               3620               0-1.705302566E-130.0000000000E+00+
*       2.4600000000E+04               0
GRID*               3621               02.6423307986E-140.0000000000E+00+
*       2.4000000000E+04               0
GRID*               3622               02.4868995752E-140.0000000000E+00+
*       2.3400000000E+04               0
GRID*               3623               05.9507954120E-140.0000000000E+00+
*       2.6400000000E+04               0
GRID*               3624               04.1211478674E-130.0000000000E+00+
*       2.5800000000E+04               0
GRID*               3625               02.1671553441E-130.0000000000E+00+
*       2.5200000000E+04               0
GRID*               2713               0-1.500000000E+03-5.000000000E+02+
*       1.8600000000E+04               0
GRID*               2714               0-1.500000000E+03-5.000000000E+02+
*       1.9200000000E+04               0
GRID*               2715               0-1.500000000E+03-5.000000000E+02+
*       1.9800000000E+04               0
GRID*               2716               0-1.500000000E+03-5.000000000E+02+
*       2.0400000000E+04               0
GRID*               2717               0-1.500000000E+03-5.000000000E+02+
*       2.1000000000E+04               0
GRID*               2718               0-1.500000000E+03-5.000000000E+02+
*       2.1600000000E+04               0
GRID*               2719               0-1.500000000E+03-5.000000000E+02+
*       2.2200000000E+04               0
GRID*               2720               0-1.500000000E+03-5.000000000E+02+
*       2.2800000000E+04               0
GRID*               2721               0-1.500000000E+03-5.000000000E+02+
*       2.3400000000E+04               0
GRID*               2722               0-1.500000000E+03-5.000000000E+02+
*       2.4000000000E+04               0
GRID*               2723               0-1.500000000E+03-5.000000000E+02+
*       2.4600000000E+04               0
GRID*               2724               0-1.500000000E+03-5.000000000E+02+
*       2.5200000000E+04               0
GRID*               2725               0-1.500000000E+03-5.000000000E+02+
*       2.5800000000E+04               0
GRID*               2726               0-1.500000000E+03-5.000000000E+02+
*       2.6400000000E+04               0
GRID*               2727               0-1.500000000E+03-5.000000000E+02+
*       2.7000000000E+04               0
GRID*               2728               0-1.500000000E+03-5.000000000E+02+
*       2.7600000000E+04               0
GRID*               2729               0-1.500000000E+03-5.000000000E+02+
*       2.8200000000E+04               0
GRID*               2730               0-1.500000000E+03-5.000000000E+02+
*       2.8800000000E+04               0
GRID*               2731               0-1.500000000E+03-5.000000000E+02+
*       2.9400000000E+04               0
GRID*               2732               0-1.500000000E+03-5.000000000E+02+
*       3.0000000000E+04               0
GRID*               2733               0-1.500000000E+03-5.000000000E+02+
*       3.0600000000E+04               0
GRID*               2734               0-1.500000000E+03-5.000000000E+02+
*       3.1200000000E+04               0
GRID*               2735               0-1.500000000E+03-5.000000000E+02+
*       3.1800000000E+04               0
GRID*               2736               0-1.500000000E+03-5.000000000E+02+
*       3.2400000000E+04               0
GRID*               2737               0-1.500000000E+03-5.000000000E+02+
*       3.3000000000E+04               0
GRID*               2738               0-1.500000000E+03-5.000000000E+02+
*       3.3600000000E+04               0
GRID*               2739               0-1.500000000E+03-5.000000000E+02+
*       3.4200000000E+04               0
GRID*               2740               0-1.500000000E+03-5.000000000E+02+
*       3.4800000000E+04               0
GRID*               2741               0-1.500000000E+03-5.000000000E+02+
*       3.5400000000E+04               0
GRID*               2742               0-1.500000000E+03-5.000000000E+02+
*       1.8300000000E+04               0
GRID*               2743               0-1.500000000E+03-2.500000000E+02+
*       1.8600000000E+04               0
GRID*               2744               0-1.500000000E+03-7.500000000E+02+
*       1.8600000000E+04               0
GRID*               2745               0-1.500000000E+03-7.500000000E+02+
*       1.9200000000E+04               0
GRID*               2746               0-1.500000000E+03-5.000000000E+02+
*       1.8900000000E+04               0
GRID*               2747               0-1.500000000E+03-7.500000000E+02+
*       1.9800000000E+04               0
GRID*               2748               0-1.500000000E+03-5.000000000E+02+
*       1.9500000000E+04               0
GRID*               2749               0-1.500000000E+03-7.500000000E+02+
*       2.0400000000E+04               0
GRID*               2750               0-1.500000000E+03-5.000000000E+02+
*       2.0100000000E+04               0
GRID*               2751               0-1.500000000E+03-7.500000000E+02+
*       2.1000000000E+04               0
GRID*               2752               0-1.500000000E+03-5.000000000E+02+
*       2.0700000000E+04               0
GRID*               2753               0-1.500000000E+03-7.500000000E+02+
*       2.1600000000E+04               0
GRID*               2754               0-1.500000000E+03-5.000000000E+02+
*       2.1300000000E+04               0
GRID*               2755               0-1.500000000E+03-7.500000000E+02+
*       2.2200000000E+04               0
GRID*               2756               0-1.500000000E+03-5.000000000E+02+
*       2.1900000000E+04               0
GRID*               2757               0-1.500000000E+03-7.500000000E+02+
*       2.2800000000E+04               0
GRID*               2758               0-1.500000000E+03-5.000000000E+02+
*       2.2500000000E+04               0
GRID*               2759               0-1.500000000E+03-7.500000000E+02+
*       2.3400000000E+04               0
GRID*               2760               0-1.500000000E+03-5.000000000E+02+
*       2.3100000000E+04               0
GRID*               2761               0-1.500000000E+03-7.500000000E+02+
*       2.4000000000E+04               0
GRID*               2762               0-1.500000000E+03-5.000000000E+02+
*       2.3700000000E+04               0
GRID*               2763               0-1.500000000E+03-7.500000000E+02+
*       2.4600000000E+04               0
GRID*               2764               0-1.500000000E+03-5.000000000E+02+
*       2.4300000000E+04               0
GRID*               2765               0-1.500000000E+03-7.500000000E+02+
*       2.5200000000E+04               0
GRID*               2766               0-1.500000000E+03-5.000000000E+02+
*       2.4900000000E+04               0
GRID*               2767               0-1.500000000E+03-7.500000000E+02+
*       2.5800000000E+04               0
GRID*               2768               0-1.500000000E+03-5.000000000E+02+
*       2.5500000000E+04               0
GRID*               2769               0-1.500000000E+03-7.500000000E+02+
*       2.6400000000E+04               0
GRID*               2770               0-1.500000000E+03-5.000000000E+02+
*       2.6100000000E+04               0
GRID*               2771               0-1.500000000E+03-7.500000000E+02+
*       2.7000000000E+04               0
GRID*               2772               0-1.500000000E+03-5.000000000E+02+
*       2.6700000000E+04               0
GRID*               2773               0-1.500000000E+03-7.500000000E+02+
*       2.7600000000E+04               0
GRID*               2774               0-1.500000000E+03-5.000000000E+02+
*       2.7300000000E+04               0
GRID*               2775               0-1.500000000E+03-7.500000000E+02+
*       2.8200000000E+04               0
GRID*               2776               0-1.500000000E+03-5.000000000E+02+
*       2.7900000000E+04               0
GRID*               2777               0-1.500000000E+03-7.500000000E+02+
*       2.8800000000E+04               0
GRID*               2778               0-1.500000000E+03-5.000000000E+02+
*       2.8500000000E+04               0
GRID*               2779               0-1.500000000E+03-7.500000000E+02+
*       2.9400000000E+04               0
GRID*               2780               0-1.500000000E+03-5.000000000E+02+
*       2.9100000000E+04               0
GRID*               2781               0-1.500000000E+03-7.500000000E+02+
*       3.0000000000E+04               0
GRID*               2782               0-1.500000000E+03-5.000000000E+02+
*       2.9700000000E+04               0
GRID*               2783               0-1.500000000E+03-7.500000000E+02+
*       3.0600000000E+04               0
GRID*               2784               0-1.500000000E+03-5.000000000E+02+
*       3.0300000000E+04               0
GRID*               2785               0-1.500000000E+03-7.500000000E+02+
*       3.1200000000E+04               0
GRID*               2786               0-1.500000000E+03-5.000000000E+02+
*       3.0900000000E+04               0
GRID*               2787               0-1.500000000E+03-7.500000000E+02+
*       3.1800000000E+04               0
GRID*               2788               0-1.500000000E+03-5.000000000E+02+
*       3.1500000000E+04               0
GRID*               2789               0-1.500000000E+03-7.500000000E+02+
*       3.2400000000E+04               0
GRID*               2790               0-1.500000000E+03-5.000000000E+02+
*       3.2100000000E+04               0
GRID*               2791               0-1.500000000E+03-7.500000000E+02+
*       3.3000000000E+04               0
GRID*               2792               0-1.500000000E+03-5.000000000E+02+
*       3.2700000000E+04               0
GRID*               2793               0-1.500000000E+03-7.500000000E+02+
*       3.3600000000E+04               0
GRID*               2794               0-1.500000000E+03-5.000000000E+02+
*       3.3300000000E+04               0
GRID*               2795               0-1.500000000E+03-7.500000000E+02+
*       3.4200000000E+04               0
GRID*               2796               0-1.500000000E+03-5.000000000E+02+
*       3.3900000000E+04               0
GRID*               2797               0-1.500000000E+03-7.500000000E+02+
*       3.4800000000E+04               0
GRID*               2798               0-1.500000000E+03-5.000000000E+02+
*       3.4500000000E+04               0
GRID*               2799               0-1.500000000E+03-7.500000000E+02+
*       3.5400000000E+04               0
GRID*               2800               0-1.500000000E+03-5.000000000E+02+
*       3.5100000000E+04               0
GRID*               2801               0-1.500000000E+03-5.000000000E+02+
*       3.5700000000E+04               0
GRID*               2802               0-1.500000000E+03-2.500000000E+02+
*       3.5400000000E+04               0
GRID*               2803               0-1.500000000E+03-2.500000000E+02+
*       3.4800000000E+04               0
GRID*               2804               0-1.500000000E+03-2.500000000E+02+
*       3.4200000000E+04               0
GRID*               2805               0-1.500000000E+03-2.500000000E+02+
*       3.3600000000E+04               0
GRID*               2806               0-1.500000000E+03-2.500000000E+02+
*       3.3000000000E+04               0
GRID*               2807               0-1.500000000E+03-2.500000000E+02+
*       3.2400000000E+04               0
GRID*               2808               0-1.500000000E+03-2.500000000E+02+
*       3.1800000000E+04               0
GRID*               2809               0-1.500000000E+03-2.500000000E+02+
*       3.1200000000E+04               0
GRID*               2810               0-1.500000000E+03-2.500000000E+02+
*       3.0600000000E+04               0
GRID*               2811               0-1.500000000E+03-2.500000000E+02+
*       3.0000000000E+04               0
GRID*               2812               0-1.500000000E+03-2.500000000E+02+
*       2.9400000000E+04               0
GRID*               2813               0-1.500000000E+03-2.500000000E+02+
*       2.8800000000E+04               0
GRID*               2814               0-1.500000000E+03-2.500000000E+02+
*       2.8200000000E+04               0
GRID*               2815               0-1.500000000E+03-2.500000000E+02+
*       2.7600000000E+04               0
GRID*               2816               0-1.500000000E+03-2.500000000E+02+
*       2.7000000000E+04               0
GRID*               2817               0-1.500000000E+03-2.500000000E+02+
*       2.6400000000E+04               0
GRID*               2818               0-1.500000000E+03-2.500000000E+02+
*       2.5800000000E+04               0
GRID*               2819               0-1.500000000E+03-2.500000000E+02+
*       2.5200000000E+04               0
GRID*               2820               0-1.500000000E+03-2.500000000E+02+
*       2.4600000000E+04               0
GRID*               2821               0-1.500000000E+03-2.500000000E+02+
*       2.4000000000E+04               0
GRID*               2822               0-1.500000000E+03-2.500000000E+02+
*       2.3400000000E+04               0
GRID*               2823               0-1.500000000E+03-2.500000000E+02+
*       2.2800000000E+04               0
GRID*               2824               0-1.500000000E+03-2.500000000E+02+
*       2.2200000000E+04               0
GRID*               2825               0-1.500000000E+03-2.500000000E+02+
*       2.1600000000E+04               0
GRID*               2826               0-1.500000000E+03-2.500000000E+02+
*       2.1000000000E+04               0
GRID*               2827               0-1.500000000E+03-2.500000000E+02+
*       2.0400000000E+04               0
GRID*               2828               0-1.500000000E+03-2.500000000E+02+
*       1.9800000000E+04               0
GRID*               2829               0-1.500000000E+03-2.500000000E+02+
*       1.9200000000E+04               0
GRID*               3626               01.5000000000E+03-5.000000000E+02+
*       1.8600000000E+04               0
GRID*               3627               01.5000000000E+03-5.000000000E+02+
*       1.9200000000E+04               0
GRID*               3628               01.5000000000E+03-5.000000000E+02+
*       1.9800000000E+04               0
GRID*               3629               01.5000000000E+03-5.000000000E+02+
*       2.0400000000E+04               0
GRID*               3630               01.5000000000E+03-5.000000000E+02+
*       2.1000000000E+04               0
GRID*               3631               01.5000000000E+03-5.000000000E+02+
*       2.1600000000E+04               0
GRID*               3632               01.5000000000E+03-5.000000000E+02+
*       2.2200000000E+04               0
GRID*               3633               01.5000000000E+03-5.000000000E+02+
*       2.2800000000E+04               0
GRID*               3634               01.5000000000E+03-5.000000000E+02+
*       2.3400000000E+04               0
GRID*               3635               01.5000000000E+03-5.000000000E+02+
*       2.4000000000E+04               0
GRID*               3636               01.5000000000E+03-5.000000000E+02+
*       2.4600000000E+04               0
GRID*               3637               01.5000000000E+03-5.000000000E+02+
*       2.5200000000E+04               0
GRID*               3638               01.5000000000E+03-5.000000000E+02+
*       2.5800000000E+04               0
GRID*               3639               01.5000000000E+03-5.000000000E+02+
*       2.6400000000E+04               0
GRID*               3640               01.5000000000E+03-5.000000000E+02+
*       2.7000000000E+04               0
GRID*               3641               01.5000000000E+03-5.000000000E+02+
*       2.7600000000E+04               0
GRID*               3642               01.5000000000E+03-5.000000000E+02+
*       2.8200000000E+04               0
GRID*               3643               01.5000000000E+03-5.000000000E+02+
*       2.8800000000E+04               0
GRID*               3644               01.5000000000E+03-5.000000000E+02+
*       2.9400000000E+04               0
GRID*               3645               01.5000000000E+03-5.000000000E+02+
*       3.0000000000E+04               0
GRID*               3646               01.5000000000E+03-5.000000000E+02+
*       3.0600000000E+04               0
GRID*               3647               01.5000000000E+03-5.000000000E+02+
*       3.1200000000E+04               0
GRID*               3648               01.5000000000E+03-5.000000000E+02+
*       3.1800000000E+04               0
GRID*               3649               01.5000000000E+03-5.000000000E+02+
*       3.2400000000E+04               0
GRID*               3650               01.5000000000E+03-5.000000000E+02+
*       3.3000000000E+04               0
GRID*               3651               01.5000000000E+03-5.000000000E+02+
*       3.3600000000E+04               0
GRID*               3652               01.5000000000E+03-5.000000000E+02+
*       3.4200000000E+04               0
GRID*               3653               01.5000000000E+03-5.000000000E+02+
*       3.4800000000E+04               0
GRID*               3654               01.5000000000E+03-5.000000000E+02+
*       3.5400000000E+04               0
GRID*               3655               01.5000000000E+03-5.000000000E+02+
*       1.8300000000E+04               0
GRID*               3656               01.5000000000E+03-7.500000000E+02+
*       1.8600000000E+04               0
GRID*               3657               01.5000000000E+03-2.500000000E+02+
*       1.8600000000E+04               0
GRID*               3658               01.5000000000E+03-2.500000000E+02+
*       1.9200000000E+04               0
GRID*               3659               01.5000000000E+03-5.000000000E+02+
*       1.8900000000E+04               0
GRID*               3660               01.5000000000E+03-2.500000000E+02+
*       1.9800000000E+04               0
GRID*               3661               01.5000000000E+03-5.000000000E+02+
*       1.9500000000E+04               0
GRID*               3662               01.5000000000E+03-2.500000000E+02+
*       2.0400000000E+04               0
GRID*               3663               01.5000000000E+03-5.000000000E+02+
*       2.0100000000E+04               0
GRID*               3664               01.5000000000E+03-2.500000000E+02+
*       2.1000000000E+04               0
GRID*               3665               01.5000000000E+03-5.000000000E+02+
*       2.0700000000E+04               0
GRID*               3666               01.5000000000E+03-2.500000000E+02+
*       2.1600000000E+04               0
GRID*               3667               01.5000000000E+03-5.000000000E+02+
*       2.1300000000E+04               0
GRID*               3668               01.5000000000E+03-2.500000000E+02+
*       2.2200000000E+04               0
GRID*               3669               01.5000000000E+03-5.000000000E+02+
*       2.1900000000E+04               0
GRID*               3670               01.5000000000E+03-2.500000000E+02+
*       2.2800000000E+04               0
GRID*               3671               01.5000000000E+03-5.000000000E+02+
*       2.2500000000E+04               0
GRID*               3672               01.5000000000E+03-2.500000000E+02+
*       2.3400000000E+04               0
GRID*               3673               01.5000000000E+03-5.000000000E+02+
*       2.3100000000E+04               0
GRID*               3674               01.5000000000E+03-2.500000000E+02+
*       2.4000000000E+04               0
GRID*               3675               01.5000000000E+03-5.000000000E+02+
*       2.3700000000E+04               0
GRID*               3676               01.5000000000E+03-2.500000000E+02+
*       2.4600000000E+04               0
GRID*               3677               01.5000000000E+03-5.000000000E+02+
*       2.4300000000E+04               0
GRID*               3678               01.5000000000E+03-2.500000000E+02+
*       2.5200000000E+04               0
GRID*               3679               01.5000000000E+03-5.000000000E+02+
*       2.4900000000E+04               0
GRID*               3680               01.5000000000E+03-2.500000000E+02+
*       2.5800000000E+04               0
GRID*               3681               01.5000000000E+03-5.000000000E+02+
*       2.5500000000E+04               0
GRID*               3682               01.5000000000E+03-2.500000000E+02+
*       2.6400000000E+04               0
GRID*               3683               01.5000000000E+03-5.000000000E+02+
*       2.6100000000E+04               0
GRID*               3684               01.5000000000E+03-2.500000000E+02+
*       2.7000000000E+04               0
GRID*               3685               01.5000000000E+03-5.000000000E+02+
*       2.6700000000E+04               0
GRID*               3686               01.5000000000E+03-2.500000000E+02+
*       2.7600000000E+04               0
GRID*               3687               01.5000000000E+03-5.000000000E+02+
*       2.7300000000E+04               0
GRID*               3688               01.5000000000E+03-2.500000000E+02+
*       2.8200000000E+04               0
GRID*               3689               01.5000000000E+03-5.000000000E+02+
*       2.7900000000E+04               0
GRID*               3690               01.5000000000E+03-2.500000000E+02+
*       2.8800000000E+04               0
GRID*               3691               01.5000000000E+03-5.000000000E+02+
*       2.8500000000E+04               0
GRID*               3692               01.5000000000E+03-2.500000000E+02+
*       2.9400000000E+04               0
GRID*               3693               01.5000000000E+03-5.000000000E+02+
*       2.9100000000E+04               0
GRID*               3694               01.5000000000E+03-2.500000000E+02+
*       3.0000000000E+04               0
GRID*               3695               01.5000000000E+03-5.000000000E+02+
*       2.9700000000E+04               0
GRID*               3696               01.5000000000E+03-2.500000000E+02+
*       3.0600000000E+04               0
GRID*               3697               01.5000000000E+03-5.000000000E+02+
*       3.0300000000E+04               0
GRID*               3698               01.5000000000E+03-2.500000000E+02+
*       3.1200000000E+04               0
GRID*               3699               01.5000000000E+03-5.000000000E+02+
*       3.0900000000E+04               0
GRID*               3700               01.5000000000E+03-2.500000000E+02+
*       3.1800000000E+04               0
GRID*               3701               01.5000000000E+03-5.000000000E+02+
*       3.1500000000E+04               0
GRID*               3702               01.5000000000E+03-2.500000000E+02+
*       3.2400000000E+04               0
GRID*               3703               01.5000000000E+03-5.000000000E+02+
*       3.2100000000E+04               0
GRID*               3704               01.5000000000E+03-2.500000000E+02+
*       3.3000000000E+04               0
GRID*               3705               01.5000000000E+03-5.000000000E+02+
*       3.2700000000E+04               0
GRID*               3706               01.5000000000E+03-2.500000000E+02+
*       3.3600000000E+04               0
GRID*               3707               01.5000000000E+03-5.000000000E+02+
*       3.3300000000E+04               0
GRID*               3708               01.5000000000E+03-2.500000000E+02+
*       3.4200000000E+04               0
GRID*               3709               01.5000000000E+03-5.000000000E+02+
*       3.3900000000E+04               0
GRID*               3710               01.5000000000E+03-2.500000000E+02+
*       3.4800000000E+04               0
GRID*               3711               01.5000000000E+03-5.000000000E+02+
*       3.4500000000E+04               0
GRID*               3712               01.5000000000E+03-2.500000000E+02+
*       3.5400000000E+04               0
GRID*               3713               01.5000000000E+03-5.000000000E+02+
*       3.5100000000E+04               0
GRID*               3714               01.5000000000E+03-5.000000000E+02+
*       3.5700000000E+04               0
GRID*               3715               01.5000000000E+03-7.500000000E+02+
*       3.5400000000E+04               0
GRID*               3716               01.5000000000E+03-7.500000000E+02+
*       3.4800000000E+04               0
GRID*               3717               01.5000000000E+03-7.500000000E+02+
*       3.4200000000E+04               0
GRID*               3718               01.5000000000E+03-7.500000000E+02+
*       3.3600000000E+04               0
GRID*               3719               01.5000000000E+03-7.500000000E+02+
*       3.3000000000E+04               0
GRID*               3720               01.5000000000E+03-7.500000000E+02+
*       3.2400000000E+04               0
GRID*               3721               01.5000000000E+03-7.500000000E+02+
*       3.1800000000E+04               0
GRID*               3722               01.5000000000E+03-7.500000000E+02+
*       3.1200000000E+04               0
GRID*               3723               01.5000000000E+03-7.500000000E+02+
*       3.0600000000E+04               0
GRID*               3724               01.5000000000E+03-7.500000000E+02+
*       3.0000000000E+04               0
GRID*               3725               01.5000000000E+03-7.500000000E+02+
*       2.9400000000E+04               0
GRID*               3726               01.5000000000E+03-7.500000000E+02+
*       2.8800000000E+04               0
GRID*               3727               01.5000000000E+03-7.500000000E+02+
*       2.8200000000E+04               0
GRID*               3728               01.5000000000E+03-7.500000000E+02+
*       2.7600000000E+04               0
GRID*               3729               01.5000000000E+03-7.500000000E+02+
*       2.7000000000E+04               0
GRID*               3730               01.5000000000E+03-7.500000000E+02+
*       2.6400000000E+04               0
GRID*               3731               01.5000000000E+03-7.500000000E+02+
*       2.5800000000E+04               0
GRID*               3732               01.5000000000E+03-7.500000000E+02+
*       2.5200000000E+04               0
GRID*               3733               01.5000000000E+03-7.500000000E+02+
*       2.4600000000E+04               0
GRID*               3734               01.5000000000E+03-7.500000000E+02+
*       2.4000000000E+04               0
GRID*               3735               01.5000000000E+03-7.500000000E+02+
*       2.3400000000E+04               0
GRID*               3736               01.5000000000E+03-7.500000000E+02+
*       2.2800000000E+04               0
GRID*               3737               01.5000000000E+03-7.500000000E+02+
*       2.2200000000E+04               0
GRID*               3738               01.5000000000E+03-7.500000000E+02+
*       2.1600000000E+04               0
GRID*               3739               01.5000000000E+03-7.500000000E+02+
*       2.1000000000E+04               0
GRID*               3740               01.5000000000E+03-7.500000000E+02+
*       2.0400000000E+04               0
GRID*               3741               01.5000000000E+03-7.500000000E+02+
*       1.9800000000E+04               0
GRID*               3742               01.5000000000E+03-7.500000000E+02+
*       1.9200000000E+04               0
GRID*               3211               09.0000000000E+02-5.000000000E+02+
*       1.8000000000E+04               0
GRID*               3212               03.0000000000E+02-5.000000000E+02+
*       1.8000000000E+04               0
GRID*               3213               0-3.000000000E+02-5.000000000E+02+
*       1.8000000000E+04               0
GRID*               3214               0-9.000000000E+02-5.000000000E+02+
*       1.8000000000E+04               0
GRID*               3215               09.0000000000E+02-7.500000000E+02+
*       1.8000000000E+04               0
GRID*               3216               01.2000000000E+03-5.000000000E+02+
*       1.8000000000E+04               0
GRID*               3217               03.0000000000E+02-7.500000000E+02+
*       1.8000000000E+04               0
GRID*               3218               06.0000000000E+02-5.000000000E+02+
*       1.8000000000E+04               0
GRID*               3219               0-3.000000000E+02-7.500000000E+02+
*       1.8000000000E+04               0
GRID*               3220               00.0000000000E+00-5.000000000E+02+
*       1.8000000000E+04               0
GRID*               3221               0-9.000000000E+02-7.500000000E+02+
*       1.8000000000E+04               0
GRID*               3222               0-6.000000000E+02-5.000000000E+02+
*       1.8000000000E+04               0
GRID*               3223               0-1.200000000E+03-5.000000000E+02+
*       1.8000000000E+04               0
GRID*               3224               0-9.000000000E+02-2.500000000E+02+
*       1.8000000000E+04               0
GRID*               3225               0-3.000000000E+02-2.500000000E+02+
*       1.8000000000E+04               0
GRID*               3226               03.0000000000E+02-2.500000000E+02+
*       1.8000000000E+04               0
GRID*               3227               09.0000000000E+02-2.500000000E+02+
*       1.8000000000E+04               0
GRID*               3228               0-9.000000000E+02-5.000000000E+02+
*       3.6000000000E+04               0
GRID*               3229               0-3.000000000E+02-5.000000000E+02+
*       3.6000000000E+04               0
GRID*               3230               03.0000000000E+02-5.000000000E+02+
*       3.6000000000E+04               0
GRID*               3231               09.0000000000E+02-5.000000000E+02+
*       3.6000000000E+04               0
GRID*               3232               0-9.000000000E+02-7.500000000E+02+
*       3.6000000000E+04               0
GRID*               3233               0-1.200000000E+03-5.000000000E+02+
*       3.6000000000E+04               0
GRID*               3234               0-3.000000000E+02-7.500000000E+02+
*       3.6000000000E+04               0
GRID*               3235               0-6.000000000E+02-5.000000000E+02+
*       3.6000000000E+04               0
GRID*               3236               03.0000000000E+02-7.500000000E+02+
*       3.6000000000E+04               0
GRID*               3237               00.0000000000E+00-5.000000000E+02+
*       3.6000000000E+04               0
GRID*               3238               09.0000000000E+02-7.500000000E+02+
*       3.6000000000E+04               0
GRID*               3239               06.0000000000E+02-5.000000000E+02+
*       3.6000000000E+04               0
GRID*               3240               01.2000000000E+03-5.000000000E+02+
*       3.6000000000E+04               0
GRID*               3241               09.0000000000E+02-2.500000000E+02+
*       3.6000000000E+04               0
GRID*               3242               03.0000000000E+02-2.500000000E+02+
*       3.6000000000E+04               0
GRID*               3243               0-3.000000000E+02-2.500000000E+02+
*       3.6000000000E+04               0
GRID*               3244               0-9.000000000E+02-2.500000000E+02+
*       3.6000000000E+04               0
GRID*               2100               09.0000000000E+02-5.000000000E+02+
*       1.8600000000E+04               0
GRID*               2101               03.0000000000E+02-5.000000000E+02+
*       1.8600000000E+04               0
GRID*               2102               0-3.000000000E+02-5.000000000E+02+
*       1.8600000000E+04               0
GRID*               2103               0-9.000000000E+02-5.000000000E+02+
*       1.8600000000E+04               0
GRID*               2104               0-9.000000000E+02-5.000000000E+02+
*       1.9200000000E+04               0
GRID*               2105               0-9.000000000E+02-5.000000000E+02+
*       1.9800000000E+04               0
GRID*               2106               0-9.000000000E+02-5.000000000E+02+
*       2.0400000000E+04               0
GRID*               2107               0-9.000000000E+02-5.000000000E+02+
*       2.1000000000E+04               0
GRID*               2108               0-9.000000000E+02-5.000000000E+02+
*       2.1600000000E+04               0
GRID*               2109               0-9.000000000E+02-5.000000000E+02+
*       2.2200000000E+04               0
GRID*               2110               0-9.000000000E+02-5.000000000E+02+
*       2.2800000000E+04               0
GRID*               2111               0-9.000000000E+02-5.000000000E+02+
*       2.3400000000E+04               0
GRID*               2112               0-9.000000000E+02-5.000000000E+02+
*       2.4000000000E+04               0
GRID*               2113               0-9.000000000E+02-5.000000000E+02+
*       2.4600000000E+04               0
GRID*               2114               0-9.000000000E+02-5.000000000E+02+
*       2.5200000000E+04               0
GRID*               2115               0-9.000000000E+02-5.000000000E+02+
*       2.5800000000E+04               0
GRID*               2116               0-9.000000000E+02-5.000000000E+02+
*       2.6400000000E+04               0
GRID*               2117               0-9.000000000E+02-5.000000000E+02+
*       2.7000000000E+04               0
GRID*               2118               0-9.000000000E+02-5.000000000E+02+
*       2.7600000000E+04               0
GRID*               2119               0-9.000000000E+02-5.000000000E+02+
*       2.8200000000E+04               0
GRID*               2120               0-9.000000000E+02-5.000000000E+02+
*       2.8800000000E+04               0
GRID*               2121               0-9.000000000E+02-5.000000000E+02+
*       2.9400000000E+04               0
GRID*               2122               0-9.000000000E+02-5.000000000E+02+
*       3.0000000000E+04               0
GRID*               2123               0-9.000000000E+02-5.000000000E+02+
*       3.0600000000E+04               0
GRID*               2124               0-9.000000000E+02-5.000000000E+02+
*       3.1200000000E+04               0
GRID*               2125               0-9.000000000E+02-5.000000000E+02+
*       3.1800000000E+04               0
GRID*               2126               0-9.000000000E+02-5.000000000E+02+
*       3.2400000000E+04               0
GRID*               2127               0-9.000000000E+02-5.000000000E+02+
*       3.3000000000E+04               0
GRID*               2128               0-9.000000000E+02-5.000000000E+02+
*       3.3600000000E+04               0
GRID*               2129               0-9.000000000E+02-5.000000000E+02+
*       3.4200000000E+04               0
GRID*               2130               0-9.000000000E+02-5.000000000E+02+
*       3.4800000000E+04               0
GRID*               2131               0-9.000000000E+02-5.000000000E+02+
*       3.5400000000E+04               0
GRID*               2132               0-3.000000000E+02-5.000000000E+02+
*       3.5400000000E+04               0
GRID*               2133               03.0000000000E+02-5.000000000E+02+
*       3.5400000000E+04               0
GRID*               2134               09.0000000000E+02-5.000000000E+02+
*       3.5400000000E+04               0
GRID*               2135               09.0000000000E+02-5.000000000E+02+
*       3.4800000000E+04               0
GRID*               2136               09.0000000000E+02-5.000000000E+02+
*       3.4200000000E+04               0
GRID*               2137               09.0000000000E+02-5.000000000E+02+
*       3.3600000000E+04               0
GRID*               2138               09.0000000000E+02-5.000000000E+02+
*       3.3000000000E+04               0
GRID*               2139               09.0000000000E+02-5.000000000E+02+
*       3.2400000000E+04               0
GRID*               2140               09.0000000000E+02-5.000000000E+02+
*       3.1800000000E+04               0
GRID*               2141               09.0000000000E+02-5.000000000E+02+
*       3.1200000000E+04               0
GRID*               2142               09.0000000000E+02-5.000000000E+02+
*       3.0600000000E+04               0
GRID*               2143               09.0000000000E+02-5.000000000E+02+
*       3.0000000000E+04               0
GRID*               2144               09.0000000000E+02-5.000000000E+02+
*       2.9400000000E+04               0
GRID*               2145               09.0000000000E+02-5.000000000E+02+
*       2.8800000000E+04               0
GRID*               2146               09.0000000000E+02-5.000000000E+02+
*       2.8200000000E+04               0
GRID*               2147               09.0000000000E+02-5.000000000E+02+
*       2.7600000000E+04               0
GRID*               2148               09.0000000000E+02-5.000000000E+02+
*       2.7000000000E+04               0
GRID*               2149               09.0000000000E+02-5.000000000E+02+
*       2.6400000000E+04               0
GRID*               2150               09.0000000000E+02-5.000000000E+02+
*       2.5800000000E+04               0
GRID*               2151               09.0000000000E+02-5.000000000E+02+
*       2.5200000000E+04               0
GRID*               2152               09.0000000000E+02-5.000000000E+02+
*       2.4600000000E+04               0
GRID*               2153               09.0000000000E+02-5.000000000E+02+
*       2.4000000000E+04               0
GRID*               2154               09.0000000000E+02-5.000000000E+02+
*       2.3400000000E+04               0
GRID*               2155               09.0000000000E+02-5.000000000E+02+
*       2.2800000000E+04               0
GRID*               2156               09.0000000000E+02-5.000000000E+02+
*       2.2200000000E+04               0
GRID*               2157               09.0000000000E+02-5.000000000E+02+
*       2.1600000000E+04               0
GRID*               2158               09.0000000000E+02-5.000000000E+02+
*       2.1000000000E+04               0
GRID*               2159               09.0000000000E+02-5.000000000E+02+
*       2.0400000000E+04               0
GRID*               2160               09.0000000000E+02-5.000000000E+02+
*       1.9800000000E+04               0
GRID*               2161               09.0000000000E+02-5.000000000E+02+
*       1.9200000000E+04               0
GRID*               2162               03.0000000000E+02-5.000000000E+02+
*       1.9200000000E+04               0
GRID*               2163               0-3.000000000E+02-5.000000000E+02+
*       1.9200000000E+04               0
GRID*               2164               0-3.000000000E+02-5.000000000E+02+
*       1.9800000000E+04               0
GRID*               2165               0-3.000000000E+02-5.000000000E+02+
*       2.0400000000E+04               0
GRID*               2166               0-3.000000000E+02-5.000000000E+02+
*       2.1000000000E+04               0
GRID*               2167               0-3.000000000E+02-5.000000000E+02+
*       2.1600000000E+04               0
GRID*               2168               0-3.000000000E+02-5.000000000E+02+
*       2.2200000000E+04               0
GRID*               2169               0-3.000000000E+02-5.000000000E+02+
*       2.2800000000E+04               0
GRID*               2170               0-3.000000000E+02-5.000000000E+02+
*       2.3400000000E+04               0
GRID*               2171               0-3.000000000E+02-5.000000000E+02+
*       2.4000000000E+04               0
GRID*               2172               0-3.000000000E+02-5.000000000E+02+
*       2.4600000000E+04               0
GRID*               2173               0-3.000000000E+02-5.000000000E+02+
*       2.5200000000E+04               0
GRID*               2174               0-3.000000000E+02-5.000000000E+02+
*       2.5800000000E+04               0
GRID*               2175               0-3.000000000E+02-5.000000000E+02+
*       2.6400000000E+04               0
GRID*               2176               0-3.000000000E+02-5.000000000E+02+
*       2.7000000000E+04               0
GRID*               2177               0-3.000000000E+02-5.000000000E+02+
*       2.7600000000E+04               0
GRID*               2178               0-3.000000000E+02-5.000000000E+02+
*       2.8200000000E+04               0
GRID*               2179               0-3.000000000E+02-5.000000000E+02+
*       2.8800000000E+04               0
GRID*               2180               0-3.000000000E+02-5.000000000E+02+
*       2.9400000000E+04               0
GRID*               2181               0-3.000000000E+02-5.000000000E+02+
*       3.0000000000E+04               0
GRID*               2182               0-3.000000000E+02-5.000000000E+02+
*       3.0600000000E+04               0
GRID*               2183               0-3.000000000E+02-5.000000000E+02+
*       3.1200000000E+04               0
GRID*               2184               0-3.000000000E+02-5.000000000E+02+
*       3.1800000000E+04               0
GRID*               2185               0-3.000000000E+02-5.000000000E+02+
*       3.2400000000E+04               0
GRID*               2186               0-3.000000000E+02-5.000000000E+02+
*       3.3000000000E+04               0
GRID*               2187               0-3.000000000E+02-5.000000000E+02+
*       3.3600000000E+04               0
GRID*               2188               0-3.000000000E+02-5.000000000E+02+
*       3.4200000000E+04               0
GRID*               2189               0-3.000000000E+02-5.000000000E+02+
*       3.4800000000E+04               0
GRID*               2190               03.0000000000E+02-5.000000000E+02+
*       3.4800000000E+04               0
GRID*               2191               03.0000000000E+02-5.000000000E+02+
*       3.4200000000E+04               0
GRID*               2192               03.0000000000E+02-5.000000000E+02+
*       3.3600000000E+04               0
GRID*               2193               03.0000000000E+02-5.000000000E+02+
*       3.3000000000E+04               0
GRID*               2194               03.0000000000E+02-5.000000000E+02+
*       3.2400000000E+04               0
GRID*               2195               03.0000000000E+02-5.000000000E+02+
*       3.1800000000E+04               0
GRID*               2196               03.0000000000E+02-5.000000000E+02+
*       3.1200000000E+04               0
GRID*               2197               03.0000000000E+02-5.000000000E+02+
*       3.0600000000E+04               0
GRID*               2198               03.0000000000E+02-5.000000000E+02+
*       3.0000000000E+04               0
GRID*               2199               03.0000000000E+02-5.000000000E+02+
*       2.9400000000E+04               0
GRID*               2200               03.0000000000E+02-5.000000000E+02+
*       2.8800000000E+04               0
GRID*               2201               03.0000000000E+02-5.000000000E+02+
*       2.8200000000E+04               0
GRID*               2202               03.0000000000E+02-5.000000000E+02+
*       2.7600000000E+04               0
GRID*               2203               03.0000000000E+02-5.000000000E+02+
*       2.7000000000E+04               0
GRID*               2204               03.0000000000E+02-5.000000000E+02+
*       2.6400000000E+04               0
GRID*               2205               03.0000000000E+02-5.000000000E+02+
*       2.5800000000E+04               0
GRID*               2206               03.0000000000E+02-5.000000000E+02+
*       2.5200000000E+04               0
GRID*               2207               03.0000000000E+02-5.000000000E+02+
*       2.4600000000E+04               0
GRID*               2208               03.0000000000E+02-5.000000000E+02+
*       2.4000000000E+04               0
GRID*               2209               03.0000000000E+02-5.000000000E+02+
*       2.3400000000E+04               0
GRID*               2210               03.0000000000E+02-5.000000000E+02+
*       2.2800000000E+04               0
GRID*               2211               03.0000000000E+02-5.000000000E+02+
*       2.2200000000E+04               0
GRID*               2212               03.0000000000E+02-5.000000000E+02+
*       2.1600000000E+04               0
GRID*               2213               03.0000000000E+02-5.000000000E+02+
*       2.1000000000E+04               0
GRID*               2214               03.0000000000E+02-5.000000000E+02+
*       2.0400000000E+04               0
GRID*               2215               03.0000000000E+02-5.000000000E+02+
*       1.9800000000E+04               0
GRID*               2216               09.0000000000E+02-2.500000000E+02+
*       1.8600000000E+04               0
GRID*               2217               01.2000000000E+03-5.000000000E+02+
*       1.8600000000E+04               0
GRID*               2218               09.0000000000E+02-5.000000000E+02+
*       1.8300000000E+04               0
GRID*               2219               09.0000000000E+02-7.500000000E+02+
*       1.8600000000E+04               0
GRID*               2220               03.0000000000E+02-2.500000000E+02+
*       1.8600000000E+04               0
GRID*               2221               03.0000000000E+02-5.000000000E+02+
*       1.8300000000E+04               0
GRID*               2222               06.0000000000E+02-5.000000000E+02+
*       1.8600000000E+04               0
GRID*               2223               03.0000000000E+02-7.500000000E+02+
*       1.8600000000E+04               0
GRID*               2224               0-3.000000000E+02-2.500000000E+02+
*       1.8600000000E+04               0
GRID*               2225               0-3.000000000E+02-5.000000000E+02+
*       1.8300000000E+04               0
GRID*               2226               00.0000000000E+00-5.000000000E+02+
*       1.8600000000E+04               0
GRID*               2227               0-3.000000000E+02-7.500000000E+02+
*       1.8600000000E+04               0
GRID*               2228               0-9.000000000E+02-2.500000000E+02+
*       1.8600000000E+04               0
GRID*               2229               0-9.000000000E+02-5.000000000E+02+
*       1.8300000000E+04               0
GRID*               2230               0-6.000000000E+02-5.000000000E+02+
*       1.8600000000E+04               0
GRID*               2231               0-9.000000000E+02-7.500000000E+02+
*       1.8600000000E+04               0
GRID*               2232               0-1.200000000E+03-5.000000000E+02+
*       1.8600000000E+04               0
GRID*               2233               0-9.000000000E+02-2.500000000E+02+
*       1.9200000000E+04               0
GRID*               2234               0-1.200000000E+03-5.000000000E+02+
*       1.9200000000E+04               0
GRID*               2235               0-9.000000000E+02-5.000000000E+02+
*       1.8900000000E+04               0
GRID*               2236               0-9.000000000E+02-7.500000000E+02+
*       1.9200000000E+04               0
GRID*               2237               0-9.000000000E+02-2.500000000E+02+
*       1.9800000000E+04               0
GRID*               2238               0-1.200000000E+03-5.000000000E+02+
*       1.9800000000E+04               0
GRID*               2239               0-9.000000000E+02-5.000000000E+02+
*       1.9500000000E+04               0
GRID*               2240               0-9.000000000E+02-7.500000000E+02+
*       1.9800000000E+04               0
GRID*               2241               0-9.000000000E+02-2.500000000E+02+
*       2.0400000000E+04               0
GRID*               2242               0-1.200000000E+03-5.000000000E+02+
*       2.0400000000E+04               0
GRID*               2243               0-9.000000000E+02-5.000000000E+02+
*       2.0100000000E+04               0
GRID*               2244               0-9.000000000E+02-7.500000000E+02+
*       2.0400000000E+04               0
GRID*               2245               0-9.000000000E+02-2.500000000E+02+
*       2.1000000000E+04               0
GRID*               2246               0-1.200000000E+03-5.000000000E+02+
*       2.1000000000E+04               0
GRID*               2247               0-9.000000000E+02-5.000000000E+02+
*       2.0700000000E+04               0
GRID*               2248               0-9.000000000E+02-7.500000000E+02+
*       2.1000000000E+04               0
GRID*               2249               0-9.000000000E+02-2.500000000E+02+
*       2.1600000000E+04               0
GRID*               2250               0-1.200000000E+03-5.000000000E+02+
*       2.1600000000E+04               0
GRID*               2251               0-9.000000000E+02-5.000000000E+02+
*       2.1300000000E+04               0
GRID*               2252               0-9.000000000E+02-7.500000000E+02+
*       2.1600000000E+04               0
GRID*               2253               0-9.000000000E+02-2.500000000E+02+
*       2.2200000000E+04               0
GRID*               2254               0-1.200000000E+03-5.000000000E+02+
*       2.2200000000E+04               0
GRID*               2255               0-9.000000000E+02-5.000000000E+02+
*       2.1900000000E+04               0
GRID*               2256               0-9.000000000E+02-7.500000000E+02+
*       2.2200000000E+04               0
GRID*               2257               0-9.000000000E+02-2.500000000E+02+
*       2.2800000000E+04               0
GRID*               2258               0-1.200000000E+03-5.000000000E+02+
*       2.2800000000E+04               0
GRID*               2259               0-9.000000000E+02-5.000000000E+02+
*       2.2500000000E+04               0
GRID*               2260               0-9.000000000E+02-7.500000000E+02+
*       2.2800000000E+04               0
GRID*               2261               0-9.000000000E+02-2.500000000E+02+
*       2.3400000000E+04               0
GRID*               2262               0-1.200000000E+03-5.000000000E+02+
*       2.3400000000E+04               0
GRID*               2263               0-9.000000000E+02-5.000000000E+02+
*       2.3100000000E+04               0
GRID*               2264               0-9.000000000E+02-7.500000000E+02+
*       2.3400000000E+04               0
GRID*               2265               0-9.000000000E+02-2.500000000E+02+
*       2.4000000000E+04               0
GRID*               2266               0-1.200000000E+03-5.000000000E+02+
*       2.4000000000E+04               0
GRID*               2267               0-9.000000000E+02-5.000000000E+02+
*       2.3700000000E+04               0
GRID*               2268               0-9.000000000E+02-7.500000000E+02+
*       2.4000000000E+04               0
GRID*               2269               0-9.000000000E+02-2.500000000E+02+
*       2.4600000000E+04               0
GRID*               2270               0-1.200000000E+03-5.000000000E+02+
*       2.4600000000E+04               0
GRID*               2271               0-9.000000000E+02-5.000000000E+02+
*       2.4300000000E+04               0
GRID*               2272               0-9.000000000E+02-7.500000000E+02+
*       2.4600000000E+04               0
GRID*               2273               0-9.000000000E+02-2.500000000E+02+
*       2.5200000000E+04               0
GRID*               2274               0-1.200000000E+03-5.000000000E+02+
*       2.5200000000E+04               0
GRID*               2275               0-9.000000000E+02-5.000000000E+02+
*       2.4900000000E+04               0
GRID*               2276               0-9.000000000E+02-7.500000000E+02+
*       2.5200000000E+04               0
GRID*               2277               0-9.000000000E+02-2.500000000E+02+
*       2.5800000000E+04               0
GRID*               2278               0-1.200000000E+03-5.000000000E+02+
*       2.5800000000E+04               0
GRID*               2279               0-9.000000000E+02-5.000000000E+02+
*       2.5500000000E+04               0
GRID*               2280               0-9.000000000E+02-7.500000000E+02+
*       2.5800000000E+04               0
GRID*               2281               0-9.000000000E+02-2.500000000E+02+
*       2.6400000000E+04               0
GRID*               2282               0-1.200000000E+03-5.000000000E+02+
*       2.6400000000E+04               0
GRID*               2283               0-9.000000000E+02-5.000000000E+02+
*       2.6100000000E+04               0
GRID*               2284               0-9.000000000E+02-7.500000000E+02+
*       2.6400000000E+04               0
GRID*               2285               0-9.000000000E+02-2.500000000E+02+
*       2.7000000000E+04               0
GRID*               2286               0-1.200000000E+03-5.000000000E+02+
*       2.7000000000E+04               0
GRID*               2287               0-9.000000000E+02-5.000000000E+02+
*       2.6700000000E+04               0
GRID*               2288               0-9.000000000E+02-7.500000000E+02+
*       2.7000000000E+04               0
GRID*               2289               0-9.000000000E+02-2.500000000E+02+
*       2.7600000000E+04               0
GRID*               2290               0-1.200000000E+03-5.000000000E+02+
*       2.7600000000E+04               0
GRID*               2291               0-9.000000000E+02-5.000000000E+02+
*       2.7300000000E+04               0
GRID*               2292               0-9.000000000E+02-7.500000000E+02+
*       2.7600000000E+04               0
GRID*               2293               0-9.000000000E+02-2.500000000E+02+
*       2.8200000000E+04               0
GRID*               2294               0-1.200000000E+03-5.000000000E+02+
*       2.8200000000E+04               0
GRID*               2295               0-9.000000000E+02-5.000000000E+02+
*       2.7900000000E+04               0
GRID*               2296               0-9.000000000E+02-7.500000000E+02+
*       2.8200000000E+04               0
GRID*               2297               0-9.000000000E+02-2.500000000E+02+
*       2.8800000000E+04               0
GRID*               2298               0-1.200000000E+03-5.000000000E+02+
*       2.8800000000E+04               0
GRID*               2299               0-9.000000000E+02-5.000000000E+02+
*       2.8500000000E+04               0
GRID*               2300               0-9.000000000E+02-7.500000000E+02+
*       2.8800000000E+04               0
GRID*               2301               0-9.000000000E+02-2.500000000E+02+
*       2.9400000000E+04               0
GRID*               2302               0-1.200000000E+03-5.000000000E+02+
*       2.9400000000E+04               0
GRID*               2303               0-9.000000000E+02-5.000000000E+02+
*       2.9100000000E+04               0
GRID*               2304               0-9.000000000E+02-7.500000000E+02+
*       2.9400000000E+04               0
GRID*               2305               0-9.000000000E+02-2.500000000E+02+
*       3.0000000000E+04               0
GRID*               2306               0-1.200000000E+03-5.000000000E+02+
*       3.0000000000E+04               0
GRID*               2307               0-9.000000000E+02-5.000000000E+02+
*       2.9700000000E+04               0
GRID*               2308               0-9.000000000E+02-7.500000000E+02+
*       3.0000000000E+04               0
GRID*               2309               0-9.000000000E+02-2.500000000E+02+
*       3.0600000000E+04               0
GRID*               2310               0-1.200000000E+03-5.000000000E+02+
*       3.0600000000E+04               0
GRID*               2311               0-9.000000000E+02-5.000000000E+02+
*       3.0300000000E+04               0
GRID*               2312               0-9.000000000E+02-7.500000000E+02+
*       3.0600000000E+04               0
GRID*               2313               0-9.000000000E+02-2.500000000E+02+
*       3.1200000000E+04               0
GRID*               2314               0-1.200000000E+03-5.000000000E+02+
*       3.1200000000E+04               0
GRID*               2315               0-9.000000000E+02-5.000000000E+02+
*       3.0900000000E+04               0
GRID*               2316               0-9.000000000E+02-7.500000000E+02+
*       3.1200000000E+04               0
GRID*               2317               0-9.000000000E+02-2.500000000E+02+
*       3.1800000000E+04               0
GRID*               2318               0-1.200000000E+03-5.000000000E+02+
*       3.1800000000E+04               0
GRID*               2319               0-9.000000000E+02-5.000000000E+02+
*       3.1500000000E+04               0
GRID*               2320               0-9.000000000E+02-7.500000000E+02+
*       3.1800000000E+04               0
GRID*               2321               0-9.000000000E+02-2.500000000E+02+
*       3.2400000000E+04               0
GRID*               2322               0-1.200000000E+03-5.000000000E+02+
*       3.2400000000E+04               0
GRID*               2323               0-9.000000000E+02-5.000000000E+02+
*       3.2100000000E+04               0
GRID*               2324               0-9.000000000E+02-7.500000000E+02+
*       3.2400000000E+04               0
GRID*               2325               0-9.000000000E+02-2.500000000E+02+
*       3.3000000000E+04               0
GRID*               2326               0-1.200000000E+03-5.000000000E+02+
*       3.3000000000E+04               0
GRID*               2327               0-9.000000000E+02-5.000000000E+02+
*       3.2700000000E+04               0
GRID*               2328               0-9.000000000E+02-7.500000000E+02+
*       3.3000000000E+04               0
GRID*               2329               0-9.000000000E+02-2.500000000E+02+
*       3.3600000000E+04               0
GRID*               2330               0-1.200000000E+03-5.000000000E+02+
*       3.3600000000E+04               0
GRID*               2331               0-9.000000000E+02-5.000000000E+02+
*       3.3300000000E+04               0
GRID*               2332               0-9.000000000E+02-7.500000000E+02+
*       3.3600000000E+04               0
GRID*               2333               0-9.000000000E+02-2.500000000E+02+
*       3.4200000000E+04               0
GRID*               2334               0-1.200000000E+03-5.000000000E+02+
*       3.4200000000E+04               0
GRID*               2335               0-9.000000000E+02-5.000000000E+02+
*       3.3900000000E+04               0
GRID*               2336               0-9.000000000E+02-7.500000000E+02+
*       3.4200000000E+04               0
GRID*               2337               0-9.000000000E+02-2.500000000E+02+
*       3.4800000000E+04               0
GRID*               2338               0-1.200000000E+03-5.000000000E+02+
*       3.4800000000E+04               0
GRID*               2339               0-9.000000000E+02-5.000000000E+02+
*       3.4500000000E+04               0
GRID*               2340               0-9.000000000E+02-7.500000000E+02+
*       3.4800000000E+04               0
GRID*               2341               0-9.000000000E+02-2.500000000E+02+
*       3.5400000000E+04               0
GRID*               2342               0-1.200000000E+03-5.000000000E+02+
*       3.5400000000E+04               0
GRID*               2343               0-9.000000000E+02-5.000000000E+02+
*       3.5100000000E+04               0
GRID*               2344               0-9.000000000E+02-7.500000000E+02+
*       3.5400000000E+04               0
GRID*               2345               0-9.000000000E+02-5.000000000E+02+
*       3.5700000000E+04               0
GRID*               2346               0-3.000000000E+02-2.500000000E+02+
*       3.5400000000E+04               0
GRID*               2347               0-3.000000000E+02-5.000000000E+02+
*       3.5700000000E+04               0
GRID*               2348               0-6.000000000E+02-5.000000000E+02+
*       3.5400000000E+04               0
GRID*               2349               0-3.000000000E+02-7.500000000E+02+
*       3.5400000000E+04               0
GRID*               2350               03.0000000000E+02-2.500000000E+02+
*       3.5400000000E+04               0
GRID*               2351               03.0000000000E+02-5.000000000E+02+
*       3.5700000000E+04               0
GRID*               2352               00.0000000000E+00-5.000000000E+02+
*       3.5400000000E+04               0
GRID*               2353               03.0000000000E+02-7.500000000E+02+
*       3.5400000000E+04               0
GRID*               2354               09.0000000000E+02-2.500000000E+02+
*       3.5400000000E+04               0
GRID*               2355               09.0000000000E+02-5.000000000E+02+
*       3.5700000000E+04               0
GRID*               2356               06.0000000000E+02-5.000000000E+02+
*       3.5400000000E+04               0
GRID*               2357               09.0000000000E+02-7.500000000E+02+
*       3.5400000000E+04               0
GRID*               2358               01.2000000000E+03-5.000000000E+02+
*       3.5400000000E+04               0
GRID*               2359               09.0000000000E+02-2.500000000E+02+
*       3.4800000000E+04               0
GRID*               2360               01.2000000000E+03-5.000000000E+02+
*       3.4800000000E+04               0
GRID*               2361               09.0000000000E+02-5.000000000E+02+
*       3.5100000000E+04               0
GRID*               2362               09.0000000000E+02-7.500000000E+02+
*       3.4800000000E+04               0
GRID*               2363               09.0000000000E+02-2.500000000E+02+
*       3.4200000000E+04               0
GRID*               2364               01.2000000000E+03-5.000000000E+02+
*       3.4200000000E+04               0
GRID*               2365               09.0000000000E+02-5.000000000E+02+
*       3.4500000000E+04               0
GRID*               2366               09.0000000000E+02-7.500000000E+02+
*       3.4200000000E+04               0
GRID*               2367               09.0000000000E+02-2.500000000E+02+
*       3.3600000000E+04               0
GRID*               2368               01.2000000000E+03-5.000000000E+02+
*       3.3600000000E+04               0
GRID*               2369               09.0000000000E+02-5.000000000E+02+
*       3.3900000000E+04               0
GRID*               2370               09.0000000000E+02-7.500000000E+02+
*       3.3600000000E+04               0
GRID*               2371               09.0000000000E+02-2.500000000E+02+
*       3.3000000000E+04               0
GRID*               2372               01.2000000000E+03-5.000000000E+02+
*       3.3000000000E+04               0
GRID*               2373               09.0000000000E+02-5.000000000E+02+
*       3.3300000000E+04               0
GRID*               2374               09.0000000000E+02-7.500000000E+02+
*       3.3000000000E+04               0
GRID*               2375               09.0000000000E+02-2.500000000E+02+
*       3.2400000000E+04               0
GRID*               2376               01.2000000000E+03-5.000000000E+02+
*       3.2400000000E+04               0
GRID*               2377               09.0000000000E+02-5.000000000E+02+
*       3.2700000000E+04               0
GRID*               2378               09.0000000000E+02-7.500000000E+02+
*       3.2400000000E+04               0
GRID*               2379               09.0000000000E+02-2.500000000E+02+
*       3.1800000000E+04               0
GRID*               2380               01.2000000000E+03-5.000000000E+02+
*       3.1800000000E+04               0
GRID*               2381               09.0000000000E+02-5.000000000E+02+
*       3.2100000000E+04               0
GRID*               2382               09.0000000000E+02-7.500000000E+02+
*       3.1800000000E+04               0
GRID*               2383               09.0000000000E+02-2.500000000E+02+
*       3.1200000000E+04               0
GRID*               2384               01.2000000000E+03-5.000000000E+02+
*       3.1200000000E+04               0
GRID*               2385               09.0000000000E+02-5.000000000E+02+
*       3.1500000000E+04               0
GRID*               2386               09.0000000000E+02-7.500000000E+02+
*       3.1200000000E+04               0
GRID*               2387               09.0000000000E+02-2.500000000E+02+
*       3.0600000000E+04               0
GRID*               2388               01.2000000000E+03-5.000000000E+02+
*       3.0600000000E+04               0
GRID*               2389               09.0000000000E+02-5.000000000E+02+
*       3.0900000000E+04               0
GRID*               2390               09.0000000000E+02-7.500000000E+02+
*       3.0600000000E+04               0
GRID*               2391               09.0000000000E+02-2.500000000E+02+
*       3.0000000000E+04               0
GRID*               2392               01.2000000000E+03-5.000000000E+02+
*       3.0000000000E+04               0
GRID*               2393               09.0000000000E+02-5.000000000E+02+
*       3.0300000000E+04               0
GRID*               2394               09.0000000000E+02-7.500000000E+02+
*       3.0000000000E+04               0
GRID*               2395               09.0000000000E+02-2.500000000E+02+
*       2.9400000000E+04               0
GRID*               2396               01.2000000000E+03-5.000000000E+02+
*       2.9400000000E+04               0
GRID*               2397               09.0000000000E+02-5.000000000E+02+
*       2.9700000000E+04               0
GRID*               2398               09.0000000000E+02-7.500000000E+02+
*       2.9400000000E+04               0
GRID*               2399               09.0000000000E+02-2.500000000E+02+
*       2.8800000000E+04               0
GRID*               2400               01.2000000000E+03-5.000000000E+02+
*       2.8800000000E+04               0
GRID*               2401               09.0000000000E+02-5.000000000E+02+
*       2.9100000000E+04               0
GRID*               2402               09.0000000000E+02-7.500000000E+02+
*       2.8800000000E+04               0
GRID*               2403               09.0000000000E+02-2.500000000E+02+
*       2.8200000000E+04               0
GRID*               2404               01.2000000000E+03-5.000000000E+02+
*       2.8200000000E+04               0
GRID*               2405               09.0000000000E+02-5.000000000E+02+
*       2.8500000000E+04               0
GRID*               2406               09.0000000000E+02-7.500000000E+02+
*       2.8200000000E+04               0
GRID*               2407               09.0000000000E+02-2.500000000E+02+
*       2.7600000000E+04               0
GRID*               2408               01.2000000000E+03-5.000000000E+02+
*       2.7600000000E+04               0
GRID*               2409               09.0000000000E+02-5.000000000E+02+
*       2.7900000000E+04               0
GRID*               2410               09.0000000000E+02-7.500000000E+02+
*       2.7600000000E+04               0
GRID*               2411               09.0000000000E+02-2.500000000E+02+
*       2.7000000000E+04               0
GRID*               2412               01.2000000000E+03-5.000000000E+02+
*       2.7000000000E+04               0
GRID*               2413               09.0000000000E+02-5.000000000E+02+
*       2.7300000000E+04               0
GRID*               2414               09.0000000000E+02-7.500000000E+02+
*       2.7000000000E+04               0
GRID*               2415               09.0000000000E+02-2.500000000E+02+
*       2.6400000000E+04               0
GRID*               2416               01.2000000000E+03-5.000000000E+02+
*       2.6400000000E+04               0
GRID*               2417               09.0000000000E+02-5.000000000E+02+
*       2.6700000000E+04               0
GRID*               2418               09.0000000000E+02-7.500000000E+02+
*       2.6400000000E+04               0
GRID*               2419               09.0000000000E+02-2.500000000E+02+
*       2.5800000000E+04               0
GRID*               2420               01.2000000000E+03-5.000000000E+02+
*       2.5800000000E+04               0
GRID*               2421               09.0000000000E+02-5.000000000E+02+
*       2.6100000000E+04               0
GRID*               2422               09.0000000000E+02-7.500000000E+02+
*       2.5800000000E+04               0
GRID*               2423               09.0000000000E+02-2.500000000E+02+
*       2.5200000000E+04               0
GRID*               2424               01.2000000000E+03-5.000000000E+02+
*       2.5200000000E+04               0
GRID*               2425               09.0000000000E+02-5.000000000E+02+
*       2.5500000000E+04               0
GRID*               2426               09.0000000000E+02-7.500000000E+02+
*       2.5200000000E+04               0
GRID*               2427               09.0000000000E+02-2.500000000E+02+
*       2.4600000000E+04               0
GRID*               2428               01.2000000000E+03-5.000000000E+02+
*       2.4600000000E+04               0
GRID*               2429               09.0000000000E+02-5.000000000E+02+
*       2.4900000000E+04               0
GRID*               2430               09.0000000000E+02-7.500000000E+02+
*       2.4600000000E+04               0
GRID*               2431               09.0000000000E+02-2.500000000E+02+
*       2.4000000000E+04               0
GRID*               2432               01.2000000000E+03-5.000000000E+02+
*       2.4000000000E+04               0
GRID*               2433               09.0000000000E+02-5.000000000E+02+
*       2.4300000000E+04               0
GRID*               2434               09.0000000000E+02-7.500000000E+02+
*       2.4000000000E+04               0
GRID*               2435               09.0000000000E+02-2.500000000E+02+
*       2.3400000000E+04               0
GRID*               2436               01.2000000000E+03-5.000000000E+02+
*       2.3400000000E+04               0
GRID*               2437               09.0000000000E+02-5.000000000E+02+
*       2.3700000000E+04               0
GRID*               2438               09.0000000000E+02-7.500000000E+02+
*       2.3400000000E+04               0
GRID*               2439               09.0000000000E+02-2.500000000E+02+
*       2.2800000000E+04               0
GRID*               2440               01.2000000000E+03-5.000000000E+02+
*       2.2800000000E+04               0
GRID*               2441               09.0000000000E+02-5.000000000E+02+
*       2.3100000000E+04               0
GRID*               2442               09.0000000000E+02-7.500000000E+02+
*       2.2800000000E+04               0
GRID*               2443               09.0000000000E+02-2.500000000E+02+
*       2.2200000000E+04               0
GRID*               2444               01.2000000000E+03-5.000000000E+02+
*       2.2200000000E+04               0
GRID*               2445               09.0000000000E+02-5.000000000E+02+
*       2.2500000000E+04               0
GRID*               2446               09.0000000000E+02-7.500000000E+02+
*       2.2200000000E+04               0
GRID*               2447               09.0000000000E+02-2.500000000E+02+
*       2.1600000000E+04               0
GRID*               2448               01.2000000000E+03-5.000000000E+02+
*       2.1600000000E+04               0
GRID*               2449               09.0000000000E+02-5.000000000E+02+
*       2.1900000000E+04               0
GRID*               2450               09.0000000000E+02-7.500000000E+02+
*       2.1600000000E+04               0
GRID*               2451               09.0000000000E+02-2.500000000E+02+
*       2.1000000000E+04               0
GRID*               2452               01.2000000000E+03-5.000000000E+02+
*       2.1000000000E+04               0
GRID*               2453               09.0000000000E+02-5.000000000E+02+
*       2.1300000000E+04               0
GRID*               2454               09.0000000000E+02-7.500000000E+02+
*       2.1000000000E+04               0
GRID*               2455               09.0000000000E+02-2.500000000E+02+
*       2.0400000000E+04               0
GRID*               2456               01.2000000000E+03-5.000000000E+02+
*       2.0400000000E+04               0
GRID*               2457               09.0000000000E+02-5.000000000E+02+
*       2.0700000000E+04               0
GRID*               2458               09.0000000000E+02-7.500000000E+02+
*       2.0400000000E+04               0
GRID*               2459               09.0000000000E+02-2.500000000E+02+
*       1.9800000000E+04               0
GRID*               2460               01.2000000000E+03-5.000000000E+02+
*       1.9800000000E+04               0
GRID*               2461               09.0000000000E+02-5.000000000E+02+
*       2.0100000000E+04               0
GRID*               2462               09.0000000000E+02-7.500000000E+02+
*       1.9800000000E+04               0
GRID*               2463               09.0000000000E+02-2.500000000E+02+
*       1.9200000000E+04               0
GRID*               2464               01.2000000000E+03-5.000000000E+02+
*       1.9200000000E+04               0
GRID*               2465               09.0000000000E+02-5.000000000E+02+
*       1.9500000000E+04               0
GRID*               2466               09.0000003493E+02-7.500000000E+02+
*       1.9199999860E+04               0
GRID*               2467               09.0000000000E+02-5.000000000E+02+
*       1.8900000000E+04               0
GRID*               2468               03.0000000000E+02-2.500000000E+02+
*       1.9200000000E+04               0
GRID*               2469               06.0000000000E+02-5.000000000E+02+
*       1.9200000000E+04               0
GRID*               2470               03.0000000000E+02-5.000000000E+02+
*       1.8900000000E+04               0
GRID*               2471               03.0000000000E+02-7.500000000E+02+
*       1.9200000000E+04               0
GRID*               2472               0-3.000000000E+02-2.500000000E+02+
*       1.9200000000E+04               0
GRID*               2473               0-3.000000000E+02-5.000000000E+02+
*       1.8900000000E+04               0
GRID*               2474               02.8421709430E-13-5.000000000E+02+
*       1.9200000000E+04               0
GRID*               2475               0-3.000000000E+02-7.500000000E+02+
*       1.9200000000E+04               0
GRID*               2476               0-6.000000000E+02-5.000000000E+02+
*       1.9200000000E+04               0
GRID*               2477               0-3.000000000E+02-2.500000000E+02+
*       1.9800000000E+04               0
GRID*               2478               0-6.000000000E+02-5.000000000E+02+
*       1.9800000000E+04               0
GRID*               2479               0-3.000000000E+02-5.000000000E+02+
*       1.9500000000E+04               0
GRID*               2480               0-3.000000000E+02-7.500000000E+02+
*       1.9800000000E+04               0
GRID*               2481               0-3.000000000E+02-2.500000000E+02+
*       2.0400000000E+04               0
GRID*               2482               0-6.000000000E+02-5.000000000E+02+
*       2.0400000000E+04               0
GRID*               2483               0-3.000000000E+02-5.000000000E+02+
*       2.0100000000E+04               0
GRID*               2484               0-3.000000000E+02-7.500000000E+02+
*       2.0400000000E+04               0
GRID*               2485               0-3.000000000E+02-2.500000000E+02+
*       2.1000000000E+04               0
GRID*               2486               0-6.000000000E+02-5.000000000E+02+
*       2.1000000000E+04               0
GRID*               2487               0-3.000000000E+02-5.000000000E+02+
*       2.0700000000E+04               0
GRID*               2488               0-3.000000000E+02-7.500000000E+02+
*       2.1000000000E+04               0
GRID*               2489               0-3.000000000E+02-2.500000000E+02+
*       2.1600000000E+04               0
GRID*               2490               0-6.000000000E+02-5.000000000E+02+
*       2.1600000000E+04               0
GRID*               2491               0-3.000000000E+02-5.000000000E+02+
*       2.1300000000E+04               0
GRID*               2492               0-3.000000000E+02-7.500000000E+02+
*       2.1600000000E+04               0
GRID*               2493               0-3.000000000E+02-2.500000000E+02+
*       2.2200000000E+04               0
GRID*               2494               0-6.000000000E+02-5.000000000E+02+
*       2.2200000000E+04               0
GRID*               2495               0-3.000000000E+02-5.000000000E+02+
*       2.1900000000E+04               0
GRID*               2496               0-3.000000000E+02-7.500000000E+02+
*       2.2200000000E+04               0
GRID*               2497               0-3.000000000E+02-2.500000000E+02+
*       2.2800000000E+04               0
GRID*               2498               0-6.000000000E+02-5.000000000E+02+
*       2.2800000000E+04               0
GRID*               2499               0-3.000000000E+02-5.000000000E+02+
*       2.2500000000E+04               0
GRID*               2500               0-3.000000000E+02-7.500000000E+02+
*       2.2800000000E+04               0
GRID*               2501               0-3.000000000E+02-2.500000000E+02+
*       2.3400000000E+04               0
GRID*               2502               0-6.000000000E+02-5.000000000E+02+
*       2.3400000000E+04               0
GRID*               2503               0-3.000000000E+02-5.000000000E+02+
*       2.3100000000E+04               0
GRID*               2504               0-3.000000000E+02-7.500000000E+02+
*       2.3400000000E+04               0
GRID*               2505               0-3.000000000E+02-2.500000000E+02+
*       2.4000000000E+04               0
GRID*               2506               0-6.000000000E+02-5.000000000E+02+
*       2.4000000000E+04               0
GRID*               2507               0-3.000000000E+02-5.000000000E+02+
*       2.3700000000E+04               0
GRID*               2508               0-3.000000000E+02-7.500000000E+02+
*       2.4000000000E+04               0
GRID*               2509               0-3.000000000E+02-2.500000000E+02+
*       2.4600000000E+04               0
GRID*               2510               0-6.000000000E+02-5.000000000E+02+
*       2.4600000000E+04               0
GRID*               2511               0-3.000000000E+02-5.000000000E+02+
*       2.4300000000E+04               0
GRID*               2512               0-3.000000000E+02-7.500000000E+02+
*       2.4600000000E+04               0
GRID*               2513               0-3.000000000E+02-2.500000000E+02+
*       2.5200000000E+04               0
GRID*               2514               0-6.000000000E+02-5.000000000E+02+
*       2.5200000000E+04               0
GRID*               2515               0-3.000000000E+02-5.000000000E+02+
*       2.4900000000E+04               0
GRID*               2516               0-3.000000000E+02-7.500000000E+02+
*       2.5200000000E+04               0
GRID*               2517               0-3.000000000E+02-2.500000000E+02+
*       2.5800000000E+04               0
GRID*               2518               0-6.000000000E+02-5.000000000E+02+
*       2.5800000000E+04               0
GRID*               2519               0-3.000000000E+02-5.000000000E+02+
*       2.5500000000E+04               0
GRID*               2520               0-3.000000000E+02-7.500000000E+02+
*       2.5800000000E+04               0
GRID*               2521               0-3.000000000E+02-2.500000000E+02+
*       2.6400000000E+04               0
GRID*               2522               0-6.000000000E+02-5.000000000E+02+
*       2.6400000000E+04               0
GRID*               2523               0-3.000000000E+02-5.000000000E+02+
*       2.6100000000E+04               0
GRID*               2524               0-3.000000000E+02-7.500000000E+02+
*       2.6400000000E+04               0
GRID*               2525               0-3.000000000E+02-2.500000000E+02+
*       2.7000000000E+04               0
GRID*               2526               0-6.000000000E+02-5.000000000E+02+
*       2.7000000000E+04               0
GRID*               2527               0-3.000000000E+02-5.000000000E+02+
*       2.6700000000E+04               0
GRID*               2528               0-3.000000000E+02-7.500000000E+02+
*       2.7000000000E+04               0
GRID*               2529               0-3.000000000E+02-2.500000000E+02+
*       2.7600000000E+04               0
GRID*               2530               0-6.000000000E+02-5.000000000E+02+
*       2.7600000000E+04               0
GRID*               2531               0-3.000000000E+02-5.000000000E+02+
*       2.7300000000E+04               0
GRID*               2532               0-3.000000000E+02-7.500000000E+02+
*       2.7600000000E+04               0
GRID*               2533               0-3.000000000E+02-2.500000000E+02+
*       2.8200000000E+04               0
GRID*               2534               0-6.000000000E+02-5.000000000E+02+
*       2.8200000000E+04               0
GRID*               2535               0-3.000000000E+02-5.000000000E+02+
*       2.7900000000E+04               0
GRID*               2536               0-3.000000000E+02-7.500000000E+02+
*       2.8200000000E+04               0
GRID*               2537               0-3.000000000E+02-2.500000000E+02+
*       2.8800000000E+04               0
GRID*               2538               0-6.000000000E+02-5.000000000E+02+
*       2.8800000000E+04               0
GRID*               2539               0-3.000000000E+02-5.000000000E+02+
*       2.8500000000E+04               0
GRID*               2540               0-3.000000000E+02-7.500000000E+02+
*       2.8800000000E+04               0
GRID*               2541               0-3.000000000E+02-2.500000000E+02+
*       2.9400000000E+04               0
GRID*               2542               0-6.000000000E+02-5.000000000E+02+
*       2.9400000000E+04               0
GRID*               2543               0-3.000000000E+02-5.000000000E+02+
*       2.9100000000E+04               0
GRID*               2544               0-3.000000000E+02-7.500000000E+02+
*       2.9400000000E+04               0
GRID*               2545               0-3.000000000E+02-2.500000000E+02+
*       3.0000000000E+04               0
GRID*               2546               0-6.000000000E+02-5.000000000E+02+
*       3.0000000000E+04               0
GRID*               2547               0-3.000000000E+02-5.000000000E+02+
*       2.9700000000E+04               0
GRID*               2548               0-3.000000000E+02-7.500000000E+02+
*       3.0000000000E+04               0
GRID*               2549               0-3.000000000E+02-2.500000000E+02+
*       3.0600000000E+04               0
GRID*               2550               0-6.000000000E+02-5.000000000E+02+
*       3.0600000000E+04               0
GRID*               2551               0-3.000000000E+02-5.000000000E+02+
*       3.0300000000E+04               0
GRID*               2552               0-3.000000000E+02-7.500000000E+02+
*       3.0600000000E+04               0
GRID*               2553               0-3.000000000E+02-2.500000000E+02+
*       3.1200000000E+04               0
GRID*               2554               0-6.000000000E+02-5.000000000E+02+
*       3.1200000000E+04               0
GRID*               2555               0-3.000000000E+02-5.000000000E+02+
*       3.0900000000E+04               0
GRID*               2556               0-3.000000000E+02-7.500000000E+02+
*       3.1200000000E+04               0
GRID*               2557               0-3.000000000E+02-2.500000000E+02+
*       3.1800000000E+04               0
GRID*               2558               0-6.000000000E+02-5.000000000E+02+
*       3.1800000000E+04               0
GRID*               2559               0-3.000000000E+02-5.000000000E+02+
*       3.1500000000E+04               0
GRID*               2560               0-3.000000000E+02-7.500000000E+02+
*       3.1800000000E+04               0
GRID*               2561               0-3.000000000E+02-2.500000000E+02+
*       3.2400000000E+04               0
GRID*               2562               0-6.000000000E+02-5.000000000E+02+
*       3.2400000000E+04               0
GRID*               2563               0-3.000000000E+02-5.000000000E+02+
*       3.2100000000E+04               0
GRID*               2564               0-3.000000000E+02-7.500000000E+02+
*       3.2400000000E+04               0
GRID*               2565               0-3.000000000E+02-2.500000000E+02+
*       3.3000000000E+04               0
GRID*               2566               0-6.000000000E+02-5.000000000E+02+
*       3.3000000000E+04               0
GRID*               2567               0-3.000000000E+02-5.000000000E+02+
*       3.2700000000E+04               0
GRID*               2568               0-3.000000000E+02-7.500000000E+02+
*       3.3000000000E+04               0
GRID*               2569               0-3.000000000E+02-2.500000000E+02+
*       3.3600000000E+04               0
GRID*               2570               0-6.000000000E+02-5.000000000E+02+
*       3.3600000000E+04               0
GRID*               2571               0-3.000000000E+02-5.000000000E+02+
*       3.3300000000E+04               0
GRID*               2572               0-3.000000000E+02-7.500000000E+02+
*       3.3600000000E+04               0
GRID*               2573               0-3.000000000E+02-2.500000000E+02+
*       3.4200000000E+04               0
GRID*               2574               0-6.000000000E+02-5.000000000E+02+
*       3.4200000000E+04               0
GRID*               2575               0-3.000000000E+02-5.000000000E+02+
*       3.3900000000E+04               0
GRID*               2576               0-3.000000000E+02-7.500000000E+02+
*       3.4200000000E+04               0
GRID*               2577               0-3.000000000E+02-2.500000000E+02+
*       3.4800000000E+04               0
GRID*               2578               0-6.000000000E+02-5.000000000E+02+
*       3.4800000000E+04               0
GRID*               2579               0-3.000000000E+02-5.000000000E+02+
*       3.4500000000E+04               0
GRID*               2580               0-3.000000000E+02-7.500000000E+02+
*       3.4800000000E+04               0
GRID*               2581               0-3.000000000E+02-5.000000000E+02+
*       3.5100000000E+04               0
GRID*               2582               03.0000000000E+02-2.500000000E+02+
*       3.4800000000E+04               0
GRID*               2583               03.0000000000E+02-5.000000000E+02+
*       3.5100000000E+04               0
GRID*               2584               0-2.557953849E-13-5.000000000E+02+
*       3.4800000000E+04               0
GRID*               2585               03.0000000000E+02-7.500000000E+02+
*       3.4800000000E+04               0
GRID*               2586               06.0000000000E+02-5.000000000E+02+
*       3.4800000000E+04               0
GRID*               2587               03.0000000000E+02-2.500000000E+02+
*       3.4200000000E+04               0
GRID*               2588               06.0000000000E+02-5.000000000E+02+
*       3.4200000000E+04               0
GRID*               2589               03.0000000000E+02-5.000000000E+02+
*       3.4500000000E+04               0
GRID*               2590               03.0000000000E+02-7.500000000E+02+
*       3.4200000000E+04               0
GRID*               2591               03.0000000000E+02-2.500000000E+02+
*       3.3600000000E+04               0
GRID*               2592               06.0000000000E+02-5.000000000E+02+
*       3.3600000000E+04               0
GRID*               2593               03.0000000000E+02-5.000000000E+02+
*       3.3900000000E+04               0
GRID*               2594               03.0000000000E+02-7.500000000E+02+
*       3.3600000000E+04               0
GRID*               2595               03.0000000000E+02-2.500000000E+02+
*       3.3000000000E+04               0
GRID*               2596               06.0000000000E+02-5.000000000E+02+
*       3.3000000000E+04               0
GRID*               2597               03.0000000000E+02-5.000000000E+02+
*       3.3300000000E+04               0
GRID*               2598               03.0000000000E+02-7.500000000E+02+
*       3.3000000000E+04               0
GRID*               2599               03.0000000000E+02-2.500000000E+02+
*       3.2400000000E+04               0
GRID*               2600               06.0000000000E+02-5.000000000E+02+
*       3.2400000000E+04               0
GRID*               2601               03.0000000000E+02-5.000000000E+02+
*       3.2700000000E+04               0
GRID*               2602               03.0000000000E+02-7.500000000E+02+
*       3.2400000000E+04               0
GRID*               2603               03.0000000000E+02-2.500000000E+02+
*       3.1800000000E+04               0
GRID*               2604               06.0000000000E+02-5.000000000E+02+
*       3.1800000000E+04               0
GRID*               2605               03.0000000000E+02-5.000000000E+02+
*       3.2100000000E+04               0
GRID*               2606               03.0000000000E+02-7.500000000E+02+
*       3.1800000000E+04               0
GRID*               2607               03.0000000000E+02-2.500000000E+02+
*       3.1200000000E+04               0
GRID*               2608               06.0000000000E+02-5.000000000E+02+
*       3.1200000000E+04               0
GRID*               2609               03.0000000000E+02-5.000000000E+02+
*       3.1500000000E+04               0
GRID*               2610               03.0000000000E+02-7.500000000E+02+
*       3.1200000000E+04               0
GRID*               2611               03.0000000000E+02-2.500000000E+02+
*       3.0600000000E+04               0
GRID*               2612               06.0000000000E+02-5.000000000E+02+
*       3.0600000000E+04               0
GRID*               2613               03.0000000000E+02-5.000000000E+02+
*       3.0900000000E+04               0
GRID*               2614               03.0000000000E+02-7.500000000E+02+
*       3.0600000000E+04               0
GRID*               2615               03.0000000000E+02-2.500000000E+02+
*       3.0000000000E+04               0
GRID*               2616               06.0000000000E+02-5.000000000E+02+
*       3.0000000000E+04               0
GRID*               2617               03.0000000000E+02-5.000000000E+02+
*       3.0300000000E+04               0
GRID*               2618               03.0000000000E+02-7.500000000E+02+
*       3.0000000000E+04               0
GRID*               2619               03.0000000000E+02-2.500000000E+02+
*       2.9400000000E+04               0
GRID*               2620               06.0000000000E+02-5.000000000E+02+
*       2.9400000000E+04               0
GRID*               2621               03.0000000000E+02-5.000000000E+02+
*       2.9700000000E+04               0
GRID*               2622               03.0000000000E+02-7.500000000E+02+
*       2.9400000000E+04               0
GRID*               2623               03.0000000000E+02-2.500000000E+02+
*       2.8800000000E+04               0
GRID*               2624               06.0000000000E+02-5.000000000E+02+
*       2.8800000000E+04               0
GRID*               2625               03.0000000000E+02-5.000000000E+02+
*       2.9100000000E+04               0
GRID*               2626               03.0000000000E+02-7.500000000E+02+
*       2.8800000000E+04               0
GRID*               2627               03.0000000000E+02-2.500000000E+02+
*       2.8200000000E+04               0
GRID*               2628               06.0000000000E+02-5.000000000E+02+
*       2.8200000000E+04               0
GRID*               2629               03.0000000000E+02-5.000000000E+02+
*       2.8500000000E+04               0
GRID*               2630               03.0000000000E+02-7.500000000E+02+
*       2.8200000000E+04               0
GRID*               2631               03.0000000000E+02-2.500000000E+02+
*       2.7600000000E+04               0
GRID*               2632               06.0000000000E+02-5.000000000E+02+
*       2.7600000000E+04               0
GRID*               2633               03.0000000000E+02-5.000000000E+02+
*       2.7900000000E+04               0
GRID*               2634               03.0000000000E+02-7.500000000E+02+
*       2.7600000000E+04               0
GRID*               2635               03.0000000000E+02-2.500000000E+02+
*       2.7000000000E+04               0
GRID*               2636               06.0000000000E+02-5.000000000E+02+
*       2.7000000000E+04               0
GRID*               2637               03.0000000000E+02-5.000000000E+02+
*       2.7300000000E+04               0
GRID*               2638               03.0000000000E+02-7.500000000E+02+
*       2.7000000000E+04               0
GRID*               2639               03.0000000000E+02-2.500000000E+02+
*       2.6400000000E+04               0
GRID*               2640               06.0000000000E+02-5.000000000E+02+
*       2.6400000000E+04               0
GRID*               2641               03.0000000000E+02-5.000000000E+02+
*       2.6700000000E+04               0
GRID*               2642               03.0000000000E+02-7.500000000E+02+
*       2.6400000000E+04               0
GRID*               2643               03.0000000000E+02-2.500000000E+02+
*       2.5800000000E+04               0
GRID*               2644               06.0000000000E+02-5.000000000E+02+
*       2.5800000000E+04               0
GRID*               2645               03.0000000000E+02-5.000000000E+02+
*       2.6100000000E+04               0
GRID*               2646               03.0000000000E+02-7.500000000E+02+
*       2.5800000000E+04               0
GRID*               2647               03.0000000000E+02-2.500000000E+02+
*       2.5200000000E+04               0
GRID*               2648               06.0000000000E+02-5.000000000E+02+
*       2.5200000000E+04               0
GRID*               2649               03.0000000000E+02-5.000000000E+02+
*       2.5500000000E+04               0
GRID*               2650               03.0000000000E+02-7.500000000E+02+
*       2.5200000000E+04               0
GRID*               2651               03.0000000000E+02-2.500000000E+02+
*       2.4600000000E+04               0
GRID*               2652               06.0000000000E+02-5.000000000E+02+
*       2.4600000000E+04               0
GRID*               2653               03.0000000000E+02-5.000000000E+02+
*       2.4900000000E+04               0
GRID*               2654               03.0000000000E+02-7.500000000E+02+
*       2.4600000000E+04               0
GRID*               2655               03.0000000000E+02-2.500000000E+02+
*       2.4000000000E+04               0
GRID*               2656               06.0000000000E+02-5.000000000E+02+
*       2.4000000000E+04               0
GRID*               2657               03.0000000000E+02-5.000000000E+02+
*       2.4300000000E+04               0
GRID*               2658               03.0000000000E+02-7.500000000E+02+
*       2.4000000000E+04               0
GRID*               2659               03.0000000000E+02-2.500000000E+02+
*       2.3400000000E+04               0
GRID*               2660               06.0000000000E+02-5.000000000E+02+
*       2.3400000000E+04               0
GRID*               2661               03.0000000000E+02-5.000000000E+02+
*       2.3700000000E+04               0
GRID*               2662               03.0000000000E+02-7.500000000E+02+
*       2.3400000000E+04               0
GRID*               2663               03.0000000000E+02-2.500000000E+02+
*       2.2800000000E+04               0
GRID*               2664               06.0000000000E+02-5.000000000E+02+
*       2.2800000000E+04               0
GRID*               2665               03.0000000000E+02-5.000000000E+02+
*       2.3100000000E+04               0
GRID*               2666               03.0000000000E+02-7.500000000E+02+
*       2.2800000000E+04               0
GRID*               2667               03.0000000000E+02-2.500000000E+02+
*       2.2200000000E+04               0
GRID*               2668               06.0000000000E+02-5.000000000E+02+
*       2.2200000000E+04               0
GRID*               2669               03.0000000000E+02-5.000000000E+02+
*       2.2500000000E+04               0
GRID*               2670               03.0000000000E+02-7.500000000E+02+
*       2.2200000000E+04               0
GRID*               2671               03.0000000000E+02-2.500000000E+02+
*       2.1600000000E+04               0
GRID*               2672               06.0000000000E+02-5.000000000E+02+
*       2.1600000000E+04               0
GRID*               2673               03.0000000000E+02-5.000000000E+02+
*       2.1900000000E+04               0
GRID*               2674               03.0000000000E+02-7.500000000E+02+
*       2.1600000000E+04               0
GRID*               2675               03.0000000000E+02-2.500000000E+02+
*       2.1000000000E+04               0
GRID*               2676               06.0000000000E+02-5.000000000E+02+
*       2.1000000000E+04               0
GRID*               2677               03.0000000000E+02-5.000000000E+02+
*       2.1300000000E+04               0
GRID*               2678               03.0000000000E+02-7.500000000E+02+
*       2.1000000000E+04               0
GRID*               2679               03.0000000000E+02-2.500000000E+02+
*       2.0400000000E+04               0
GRID*               2680               06.0000000000E+02-5.000000000E+02+
*       2.0400000000E+04               0
GRID*               2681               03.0000000000E+02-5.000000000E+02+
*       2.0700000000E+04               0
GRID*               2682               03.0000000000E+02-7.500000000E+02+
*       2.0400000000E+04               0
GRID*               2683               03.0000000000E+02-2.500000000E+02+
*       1.9800000000E+04               0
GRID*               2684               06.0000000000E+02-5.000000000E+02+
*       1.9800000000E+04               0
GRID*               2685               03.0000000000E+02-5.000000000E+02+
*       2.0100000000E+04               0
GRID*               2686               03.0000000000E+02-7.500000000E+02+
*       1.9800000000E+04               0
GRID*               2687               03.0000000000E+02-5.000000000E+02+
*       1.9500000000E+04               0
GRID*               2688               0-5.684341886E-14-5.000000000E+02+
*       3.4200000000E+04               0
GRID*               2689               02.8421709430E-14-5.000000000E+02+
*       3.3000000000E+04               0
GRID*               2690               0-8.526512829E-14-5.000000000E+02+
*       3.3600000000E+04               0
GRID*               2691               03.4106051316E-13-5.000000000E+02+
*       3.1200000000E+04               0
GRID*               2692               01.4210854715E-13-5.000000000E+02+
*       3.1800000000E+04               0
GRID*               2693               01.9895196601E-13-5.000000000E+02+
*       3.2400000000E+04               0
GRID*               2694               0-1.989519660E-13-5.000000000E+02+
*       2.8800000000E+04               0
GRID*               2695               00.0000000000E+00-5.000000000E+02+
*       2.8200000000E+04               0
GRID*               2696               02.8421709430E-14-5.000000000E+02+
*       2.7000000000E+04               0
GRID*               2697               0-8.526512829E-14-5.000000000E+02+
*       2.7600000000E+04               0
GRID*               2698               08.5265128291E-14-5.000000000E+02+
*       3.0600000000E+04               0
GRID*               2699               08.5265128291E-14-5.000000000E+02+
*       3.0000000000E+04               0
GRID*               2700               05.6843418861E-14-5.000000000E+02+
*       2.9400000000E+04               0
GRID*               2701               00.0000000000E+00-5.000000000E+02+
*       1.9800000000E+04               0
GRID*               2702               08.5265128291E-14-5.000000000E+02+
*       2.1000000000E+04               0
GRID*               2703               0-2.842170943E-13-5.000000000E+02+
*       2.0400000000E+04               0
GRID*               2704               0-8.526512829E-14-5.000000000E+02+
*       2.2800000000E+04               0
GRID*               2705               0-1.136868377E-13-5.000000000E+02+
*       2.2200000000E+04               0
GRID*               2706               05.6843418861E-14-5.000000000E+02+
*       2.1600000000E+04               0
GRID*               2707               0-1.136868377E-13-5.000000000E+02+
*       2.4600000000E+04               0
GRID*               2708               0-2.557953849E-13-5.000000000E+02+
*       2.4000000000E+04               0
GRID*               2709               02.8421709430E-14-5.000000000E+02+
*       2.3400000000E+04               0
GRID*               2710               01.4210854715E-13-5.000000000E+02+
*       2.6400000000E+04               0
GRID*               2711               03.1263880373E-13-5.000000000E+02+
*       2.5800000000E+04               0
GRID*               2712               0-8.526512829E-14-5.000000000E+02+
*       2.5200000000E+04               0
GRID*               4031               0-1.500000000E+035.0000000000E+01+
*       1.8000000000E+04               0
GRID*               4035               0-1.500000000E+035.0000000000E+01+
*       9.0000000000E+03               0
GRID*               4034               0-1.500000000E+035.0000000000E+01+
*       3.6000000000E+04               0
GRID*               4033               0-1.500000000E+035.0000000000E+01+
*       2.7000000000E+04               0
GRID*               4032               0-1.500000000E+035.0000000000E+01+
*       1.1652900866E-12               0
GRID*               4038               01.5000000000E+035.0000000000E+01+
*       3.6000000000E+04               0
GRID*               4036               01.5000000000E+035.0000000000E+01+
*       1.8000000000E+04               0
GRID*               4039               01.5000000000E+035.0000000000E+01+
*       2.7000000000E+04               0
GRID*               4037               01.5000000000E+035.0000000000E+01+
*       9.0000000000E+03               0
GRID*               4041               0-1.500000000E+030.0000000000E+00+
*       1.8000000000E+04               0
GRID*               4043               0-1.500000000E+030.0000000000E+00+
*       2.7000000000E+04               0
GRID*               4045               0-1.500000000E+030.0000000000E+00+
*       9.0000000000E+03               0
GRID*               4047               01.5000000000E+030.0000000000E+00+
*       9.0000000000E+03               0
GRID*               4049               01.5000000000E+030.0000000000E+00+
*       2.7000000000E+04               0
GRID*               4046               01.5000000000E+030.0000000000E+00+
*       1.8000000000E+04               0
GRID*               4050               01.5000000000E+030.0000000000E+00+
*       -8.668621376E-13               0
GRID*               4040               01.5000000000E+035.0000000000E+01+
*       1.1652900866E-12               0
GRID*               4044               0-1.500000000E+030.0000000000E+00+
*       3.6000000000E+04               0
GRID*               4042               0-1.500000000E+030.0000000000E+00+
*       -8.668621376E-13               0
GRID*               4048               01.5000000000E+030.0000000000E+00+
*       3.6000000000E+04               0
GRID*               6512               0-1.500000000E+034.9999988556E+01+
*       3.6000000000E+04               0
GRID*               6513               0-1.500000000E+034.9999988556E+01+
*       1.1652900866E-12               0
GRID*               6514               0-1.500000000E+036.5000000000E+02+
*       1.1652900866E-12               0
GRID*               6515               0-1.500000000E+036.5000000000E+02+
*       3.6000000000E+04               0
GRID*               6516               01.5000000000E+034.9999988556E+01+
*       1.1652900866E-12               0
GRID*               6517               01.5000000000E+034.9999988556E+01+
*       3.6000000000E+04               0
GRID*               6518               01.5000000000E+036.5000000000E+02+
*       1.1652900866E-12               0
GRID*               6519               01.5000000000E+036.5000000000E+02+
*       3.6000000000E+04               0
GRID*               5996               0-1.500000000E+034.9999988556E+01+
*       3.5400000000E+04               0
GRID*               5997               0-1.500000000E+034.9999988556E+01+
*       3.4800000000E+04               0
GRID*               5998               0-1.500000000E+034.9999988556E+01+
*       3.4200000000E+04               0
GRID*               5999               0-1.500000000E+034.9999988556E+01+
*       3.3600000000E+04               0
GRID*               6000               0-1.500000000E+034.9999988556E+01+
*       3.3000000000E+04               0
GRID*               6001               0-1.500000000E+034.9999988556E+01+
*       3.2400000000E+04               0
GRID*               6002               0-1.500000000E+034.9999988556E+01+
*       3.1800000000E+04               0
GRID*               6003               0-1.500000000E+034.9999988556E+01+
*       3.1200000000E+04               0
GRID*               6004               0-1.500000000E+034.9999988556E+01+
*       3.0600000000E+04               0
GRID*               6005               0-1.500000000E+034.9999988556E+01+
*       3.0000000000E+04               0
GRID*               6006               0-1.500000000E+034.9999988556E+01+
*       2.9400000000E+04               0
GRID*               6007               0-1.500000000E+034.9999988556E+01+
*       2.8800000000E+04               0
GRID*               6008               0-1.500000000E+034.9999988556E+01+
*       2.8200000000E+04               0
GRID*               6009               0-1.500000000E+034.9999988556E+01+
*       2.7600000000E+04               0
GRID*               6010               0-1.500000000E+034.9999988556E+01+
*       2.7000000000E+04               0
GRID*               6011               0-1.500000000E+034.9999988556E+01+
*       2.6400000000E+04               0
GRID*               6012               0-1.500000000E+034.9999988556E+01+
*       2.5800000000E+04               0
GRID*               6013               0-1.500000000E+034.9999988556E+01+
*       2.5200000000E+04               0
GRID*               6014               0-1.500000000E+034.9999988556E+01+
*       2.4600000000E+04               0
GRID*               6015               0-1.500000000E+034.9999988556E+01+
*       2.4000000000E+04               0
GRID*               6016               0-1.500000000E+034.9999988556E+01+
*       2.3400000000E+04               0
GRID*               6017               0-1.500000000E+034.9999988556E+01+
*       2.2800000000E+04               0
GRID*               6018               0-1.500000000E+034.9999988556E+01+
*       2.2200000000E+04               0
GRID*               6019               0-1.500000000E+034.9999988556E+01+
*       2.1600000000E+04               0
GRID*               6020               0-1.500000000E+034.9999988556E+01+
*       2.1000000000E+04               0
GRID*               6021               0-1.500000000E+034.9999988556E+01+
*       2.0400000000E+04               0
GRID*               6022               0-1.500000000E+034.9999988556E+01+
*       1.9800000000E+04               0
GRID*               6023               0-1.500000000E+034.9999988556E+01+
*       1.9200000000E+04               0
GRID*               6024               0-1.500000000E+034.9999988556E+01+
*       1.8600000000E+04               0
GRID*               6025               0-1.500000000E+034.9999988556E+01+
*       1.8000000000E+04               0
GRID*               6026               0-1.500000000E+034.9999988556E+01+
*       1.7400000000E+04               0
GRID*               6027               0-1.500000000E+034.9999988556E+01+
*       1.6800000000E+04               0
GRID*               6028               0-1.500000000E+034.9999988556E+01+
*       1.6200000000E+04               0
GRID*               6029               0-1.500000000E+034.9999988556E+01+
*       1.5600000000E+04               0
GRID*               6030               0-1.500000000E+034.9999988556E+01+
*       1.5000000000E+04               0
GRID*               6031               0-1.500000000E+034.9999988556E+01+
*       1.4400000000E+04               0
GRID*               6032               0-1.500000000E+034.9999988556E+01+
*       1.3800000000E+04               0
GRID*               6033               0-1.500000000E+034.9999988556E+01+
*       1.3200000000E+04               0
GRID*               6034               0-1.500000000E+034.9999988556E+01+
*       1.2600000000E+04               0
GRID*               6035               0-1.500000000E+034.9999988556E+01+
*       1.2000000000E+04               0
GRID*               6036               0-1.500000000E+034.9999988556E+01+
*       1.1400000000E+04               0
GRID*               6037               0-1.500000000E+034.9999988556E+01+
*       1.0800000000E+04               0
GRID*               6038               0-1.500000000E+034.9999988556E+01+
*       1.0200000000E+04               0
GRID*               6039               0-1.500000000E+034.9999988556E+01+
*       9.6000000000E+03               0
GRID*               6040               0-1.500000000E+034.9999988556E+01+
*       9.0000000000E+03               0
GRID*               6041               0-1.500000000E+034.9999988556E+01+
*       8.4000000000E+03               0
GRID*               6042               0-1.500000000E+034.9999988556E+01+
*       7.8000000000E+03               0
GRID*               6043               0-1.500000000E+034.9999988556E+01+
*       7.2000000000E+03               0
GRID*               6044               0-1.500000000E+034.9999988556E+01+
*       6.6000000000E+03               0
GRID*               6045               0-1.500000000E+034.9999988556E+01+
*       6.0000000000E+03               0
GRID*               6046               0-1.500000000E+034.9999988556E+01+
*       5.4000000000E+03               0
GRID*               6047               0-1.500000000E+034.9999988556E+01+
*       4.8000000000E+03               0
GRID*               6048               0-1.500000000E+034.9999988556E+01+
*       4.2000000000E+03               0
GRID*               6049               0-1.500000000E+034.9999988556E+01+
*       3.6000000000E+03               0
GRID*               6050               0-1.500000000E+034.9999988556E+01+
*       3.0000000000E+03               0
GRID*               6051               0-1.500000000E+034.9999988556E+01+
*       2.4000000000E+03               0
GRID*               6052               0-1.500000000E+034.9999988556E+01+
*       1.8000000000E+03               0
GRID*               6053               0-1.500000000E+034.9999988556E+01+
*       1.2000000000E+03               0
GRID*               6054               0-1.500000000E+034.9999988556E+01+
*       6.0000000000E+02               0
GRID*               6055               0-1.500000000E+034.9999988556E+01+
*       3.0000000000E+02               0
GRID*               6056               0-1.500000000E+034.9999988556E+01+
*       9.0000000000E+02               0
GRID*               6057               0-1.500000000E+034.9999988556E+01+
*       1.5000000000E+03               0
GRID*               6058               0-1.500000000E+034.9999988556E+01+
*       2.1000000000E+03               0
GRID*               6059               0-1.500000000E+034.9999988556E+01+
*       2.7000000000E+03               0
GRID*               6060               0-1.500000000E+034.9999988556E+01+
*       3.3000000000E+03               0
GRID*               6061               0-1.500000000E+034.9999988556E+01+
*       3.9000000000E+03               0
GRID*               6062               0-1.500000000E+034.9999988556E+01+
*       4.5000000000E+03               0
GRID*               6063               0-1.500000000E+034.9999988556E+01+
*       5.1000000000E+03               0
GRID*               6064               0-1.500000000E+034.9999988556E+01+
*       5.7000000000E+03               0
GRID*               6065               0-1.500000000E+034.9999988556E+01+
*       6.3000000000E+03               0
GRID*               6066               0-1.500000000E+034.9999988556E+01+
*       6.9000000000E+03               0
GRID*               6067               0-1.500000000E+034.9999988556E+01+
*       7.5000000000E+03               0
GRID*               6068               0-1.500000000E+034.9999988556E+01+
*       8.1000000000E+03               0
GRID*               6069               0-1.500000000E+034.9999988556E+01+
*       8.7000000000E+03               0
GRID*               6070               0-1.500000000E+034.9999988556E+01+
*       9.3000000000E+03               0
GRID*               6071               0-1.500000000E+034.9999988556E+01+
*       9.9000000000E+03               0
GRID*               6072               0-1.500000000E+034.9999988556E+01+
*       1.0500000000E+04               0
GRID*               6073               0-1.500000000E+034.9999988556E+01+
*       1.1100000000E+04               0
GRID*               6074               0-1.500000000E+034.9999988556E+01+
*       1.1700000000E+04               0
GRID*               6075               0-1.500000000E+034.9999988556E+01+
*       1.2300000000E+04               0
GRID*               6076               0-1.500000000E+034.9999988556E+01+
*       1.2900000000E+04               0
GRID*               6077               0-1.500000000E+034.9999988556E+01+
*       1.3500000000E+04               0
GRID*               6078               0-1.500000000E+034.9999988556E+01+
*       1.4100000000E+04               0
GRID*               6079               0-1.500000000E+034.9999988556E+01+
*       1.4700000000E+04               0
GRID*               6080               0-1.500000000E+034.9999988556E+01+
*       1.5300000000E+04               0
GRID*               6081               0-1.500000000E+034.9999988556E+01+
*       1.5900000000E+04               0
GRID*               6082               0-1.500000000E+034.9999988556E+01+
*       1.6500000000E+04               0
GRID*               6083               0-1.500000000E+034.9999988556E+01+
*       1.7100000000E+04               0
GRID*               6084               0-1.500000000E+034.9999988556E+01+
*       1.7700000000E+04               0
GRID*               6085               0-1.500000000E+034.9999988556E+01+
*       1.8300000000E+04               0
GRID*               6086               0-1.500000000E+034.9999988556E+01+
*       1.8900000000E+04               0
GRID*               6087               0-1.500000000E+034.9999988556E+01+
*       1.9500000000E+04               0
GRID*               6088               0-1.500000000E+034.9999988556E+01+
*       2.0100000000E+04               0
GRID*               6089               0-1.500000000E+034.9999988556E+01+
*       2.0700000000E+04               0
GRID*               6090               0-1.500000000E+034.9999988556E+01+
*       2.1300000000E+04               0
GRID*               6091               0-1.500000000E+034.9999988556E+01+
*       2.1900000000E+04               0
GRID*               6092               0-1.500000000E+034.9999988556E+01+
*       2.2500000000E+04               0
GRID*               6093               0-1.500000000E+034.9999988556E+01+
*       2.3100000000E+04               0
GRID*               6094               0-1.500000000E+034.9999988556E+01+
*       2.3700000000E+04               0
GRID*               6095               0-1.500000000E+034.9999988556E+01+
*       2.4300000000E+04               0
GRID*               6096               0-1.500000000E+034.9999988556E+01+
*       2.4900000000E+04               0
GRID*               6097               0-1.500000000E+034.9999988556E+01+
*       2.5500000000E+04               0
GRID*               6098               0-1.500000000E+034.9999988556E+01+
*       2.6100000000E+04               0
GRID*               6099               0-1.500000000E+034.9999988556E+01+
*       2.6700000000E+04               0
GRID*               6100               0-1.500000000E+034.9999988556E+01+
*       2.7300000000E+04               0
GRID*               6101               0-1.500000000E+034.9999988556E+01+
*       2.7900000000E+04               0
GRID*               6102               0-1.500000000E+034.9999988556E+01+
*       2.8500000000E+04               0
GRID*               6103               0-1.500000000E+034.9999988556E+01+
*       2.9100000000E+04               0
GRID*               6104               0-1.500000000E+034.9999988556E+01+
*       2.9700000000E+04               0
GRID*               6105               0-1.500000000E+034.9999988556E+01+
*       3.0300000000E+04               0
GRID*               6106               0-1.500000000E+034.9999988556E+01+
*       3.0900000000E+04               0
GRID*               6107               0-1.500000000E+034.9999988556E+01+
*       3.1500000000E+04               0
GRID*               6108               0-1.500000000E+034.9999988556E+01+
*       3.2100000000E+04               0
GRID*               6109               0-1.500000000E+034.9999988556E+01+
*       3.2700000000E+04               0
GRID*               6110               0-1.500000000E+034.9999988556E+01+
*       3.3300000000E+04               0
GRID*               6111               0-1.500000000E+034.9999988556E+01+
*       3.3900000000E+04               0
GRID*               6112               0-1.500000000E+034.9999988556E+01+
*       3.4500000000E+04               0
GRID*               6113               0-1.500000000E+034.9999988556E+01+
*       3.5100000000E+04               0
GRID*               6114               0-1.500000000E+034.9999988556E+01+
*       3.5700000000E+04               0
GRID*               6115               0-1.500000000E+033.4999999428E+02+
*       1.1652900866E-12               0
GRID*               6116               0-1.500000000E+033.4999999428E+02+
*       3.6000000000E+04               0
GRID*               6117               0-1.500000000E+036.5000000000E+02+
*       3.5400000000E+04               0
GRID*               6118               0-1.500000000E+036.5000000000E+02+
*       3.4800000000E+04               0
GRID*               6119               0-1.500000000E+036.5000000000E+02+
*       3.4200000000E+04               0
GRID*               6120               0-1.500000000E+036.5000000000E+02+
*       3.3600000000E+04               0
GRID*               6121               0-1.500000000E+036.5000000000E+02+
*       3.3000000000E+04               0
GRID*               6122               0-1.500000000E+036.5000000000E+02+
*       3.2400000000E+04               0
GRID*               6123               0-1.500000000E+036.5000000000E+02+
*       3.1800000000E+04               0
GRID*               6124               0-1.500000000E+036.5000000000E+02+
*       3.1200000000E+04               0
GRID*               6125               0-1.500000000E+036.5000000000E+02+
*       3.0600000000E+04               0
GRID*               6126               0-1.500000000E+036.5000000000E+02+
*       3.0000000000E+04               0
GRID*               6127               0-1.500000000E+036.5000000000E+02+
*       2.9400000000E+04               0
GRID*               6128               0-1.500000000E+036.5000000000E+02+
*       2.8800000000E+04               0
GRID*               6129               0-1.500000000E+036.5000000000E+02+
*       2.8200000000E+04               0
GRID*               6130               0-1.500000000E+036.5000000000E+02+
*       2.7600000000E+04               0
GRID*               6131               0-1.500000000E+036.5000000000E+02+
*       2.7000000000E+04               0
GRID*               6132               0-1.500000000E+036.5000000000E+02+
*       2.6400000000E+04               0
GRID*               6133               0-1.500000000E+036.5000000000E+02+
*       2.5800000000E+04               0
GRID*               6134               0-1.500000000E+036.5000000000E+02+
*       2.5200000000E+04               0
GRID*               6135               0-1.500000000E+036.5000000000E+02+
*       2.4600000000E+04               0
GRID*               6136               0-1.500000000E+036.5000000000E+02+
*       2.4000000000E+04               0
GRID*               6137               0-1.500000000E+036.5000000000E+02+
*       2.3400000000E+04               0
GRID*               6138               0-1.500000000E+036.5000000000E+02+
*       2.2800000000E+04               0
GRID*               6139               0-1.500000000E+036.5000000000E+02+
*       2.2200000000E+04               0
GRID*               6140               0-1.500000000E+036.5000000000E+02+
*       2.1600000000E+04               0
GRID*               6141               0-1.500000000E+036.5000000000E+02+
*       2.1000000000E+04               0
GRID*               6142               0-1.500000000E+036.5000000000E+02+
*       2.0400000000E+04               0
GRID*               6143               0-1.500000000E+036.5000000000E+02+
*       1.9800000000E+04               0
GRID*               6144               0-1.500000000E+036.5000000000E+02+
*       1.9200000000E+04               0
GRID*               6145               0-1.500000000E+036.5000000000E+02+
*       1.8600000000E+04               0
GRID*               6146               0-1.500000000E+036.5000000000E+02+
*       1.8000000000E+04               0
GRID*               6147               0-1.500000000E+036.5000000000E+02+
*       1.7400000000E+04               0
GRID*               6148               0-1.500000000E+036.5000000000E+02+
*       1.6800000000E+04               0
GRID*               6149               0-1.500000000E+036.5000000000E+02+
*       1.6200000000E+04               0
GRID*               6150               0-1.500000000E+036.5000000000E+02+
*       1.5600000000E+04               0
GRID*               6151               0-1.500000000E+036.5000000000E+02+
*       1.5000000000E+04               0
GRID*               6152               0-1.500000000E+036.5000000000E+02+
*       1.4400000000E+04               0
GRID*               6153               0-1.500000000E+036.5000000000E+02+
*       1.3800000000E+04               0
GRID*               6154               0-1.500000000E+036.5000000000E+02+
*       1.3200000000E+04               0
GRID*               6155               0-1.500000000E+036.5000000000E+02+
*       1.2600000000E+04               0
GRID*               6156               0-1.500000000E+036.5000000000E+02+
*       1.2000000000E+04               0
GRID*               6157               0-1.500000000E+036.5000000000E+02+
*       1.1400000000E+04               0
GRID*               6158               0-1.500000000E+036.5000000000E+02+
*       1.0800000000E+04               0
GRID*               6159               0-1.500000000E+036.5000000000E+02+
*       1.0200000000E+04               0
GRID*               6160               0-1.500000000E+036.5000000000E+02+
*       9.6000000000E+03               0
GRID*               6161               0-1.500000000E+036.5000000000E+02+
*       9.0000000000E+03               0
GRID*               6162               0-1.500000000E+036.5000000000E+02+
*       8.4000000000E+03               0
GRID*               6163               0-1.500000000E+036.5000000000E+02+
*       7.8000000000E+03               0
GRID*               6164               0-1.500000000E+036.5000000000E+02+
*       7.2000000000E+03               0
GRID*               6165               0-1.500000000E+036.5000000000E+02+
*       6.6000000000E+03               0
GRID*               6166               0-1.500000000E+036.5000000000E+02+
*       6.0000000000E+03               0
GRID*               6167               0-1.500000000E+036.5000000000E+02+
*       5.4000000000E+03               0
GRID*               6168               0-1.500000000E+036.5000000000E+02+
*       4.8000000000E+03               0
GRID*               6169               0-1.500000000E+036.5000000000E+02+
*       4.2000000000E+03               0
GRID*               6170               0-1.500000000E+036.5000000000E+02+
*       3.6000000000E+03               0
GRID*               6171               0-1.500000000E+036.5000000000E+02+
*       3.0000000000E+03               0
GRID*               6172               0-1.500000000E+036.5000000000E+02+
*       2.4000000000E+03               0
GRID*               6173               0-1.500000000E+036.5000000000E+02+
*       1.8000000000E+03               0
GRID*               6174               0-1.500000000E+036.5000000000E+02+
*       1.2000000000E+03               0
GRID*               6175               0-1.500000000E+036.5000000000E+02+
*       6.0000000000E+02               0
GRID*               6176               0-1.500000000E+036.5000000000E+02+
*       3.0000000000E+02               0
GRID*               6177               0-1.500000000E+036.5000000000E+02+
*       9.0000000000E+02               0
GRID*               6178               0-1.500000000E+036.5000000000E+02+
*       1.5000000000E+03               0
GRID*               6179               0-1.500000000E+036.5000000000E+02+
*       2.1000000000E+03               0
GRID*               6180               0-1.500000000E+036.5000000000E+02+
*       2.7000000000E+03               0
GRID*               6181               0-1.500000000E+036.5000000000E+02+
*       3.3000000000E+03               0
GRID*               6182               0-1.500000000E+036.5000000000E+02+
*       3.9000000000E+03               0
GRID*               6183               0-1.500000000E+036.5000000000E+02+
*       4.5000000000E+03               0
GRID*               6184               0-1.500000000E+036.5000000000E+02+
*       5.1000000000E+03               0
GRID*               6185               0-1.500000000E+036.5000000000E+02+
*       5.7000000000E+03               0
GRID*               6186               0-1.500000000E+036.5000000000E+02+
*       6.3000000000E+03               0
GRID*               6187               0-1.500000000E+036.5000000000E+02+
*       6.9000000000E+03               0
GRID*               6188               0-1.500000000E+036.5000000000E+02+
*       7.5000000000E+03               0
GRID*               6189               0-1.500000000E+036.5000000000E+02+
*       8.1000000000E+03               0
GRID*               6190               0-1.500000000E+036.5000000000E+02+
*       8.7000000000E+03               0
GRID*               6191               0-1.500000000E+036.5000000000E+02+
*       9.3000000000E+03               0
GRID*               6192               0-1.500000000E+036.5000000000E+02+
*       9.9000000000E+03               0
GRID*               6193               0-1.500000000E+036.5000000000E+02+
*       1.0500000000E+04               0
GRID*               6194               0-1.500000000E+036.5000000000E+02+
*       1.1100000000E+04               0
GRID*               6195               0-1.500000000E+036.5000000000E+02+
*       1.1700000000E+04               0
GRID*               6196               0-1.500000000E+036.5000000000E+02+
*       1.2300000000E+04               0
GRID*               6197               0-1.500000000E+036.5000000000E+02+
*       1.2900000000E+04               0
GRID*               6198               0-1.500000000E+036.5000000000E+02+
*       1.3500000000E+04               0
GRID*               6199               0-1.500000000E+036.5000000000E+02+
*       1.4100000000E+04               0
GRID*               6200               0-1.500000000E+036.5000000000E+02+
*       1.4700000000E+04               0
GRID*               6201               0-1.500000000E+036.5000000000E+02+
*       1.5300000000E+04               0
GRID*               6202               0-1.500000000E+036.5000000000E+02+
*       1.5900000000E+04               0
GRID*               6203               0-1.500000000E+036.5000000000E+02+
*       1.6500000000E+04               0
GRID*               6204               0-1.500000000E+036.5000000000E+02+
*       1.7100000000E+04               0
GRID*               6205               0-1.500000000E+036.5000000000E+02+
*       1.7700000000E+04               0
GRID*               6206               0-1.500000000E+036.5000000000E+02+
*       1.8300000000E+04               0
GRID*               6207               0-1.500000000E+036.5000000000E+02+
*       1.8900000000E+04               0
GRID*               6208               0-1.500000000E+036.5000000000E+02+
*       1.9500000000E+04               0
GRID*               6209               0-1.500000000E+036.5000000000E+02+
*       2.0100000000E+04               0
GRID*               6210               0-1.500000000E+036.5000000000E+02+
*       2.0700000000E+04               0
GRID*               6211               0-1.500000000E+036.5000000000E+02+
*       2.1300000000E+04               0
GRID*               6212               0-1.500000000E+036.5000000000E+02+
*       2.1900000000E+04               0
GRID*               6213               0-1.500000000E+036.5000000000E+02+
*       2.2500000000E+04               0
GRID*               6214               0-1.500000000E+036.5000000000E+02+
*       2.3100000000E+04               0
GRID*               6215               0-1.500000000E+036.5000000000E+02+
*       2.3700000000E+04               0
GRID*               6216               0-1.500000000E+036.5000000000E+02+
*       2.4300000000E+04               0
GRID*               6217               0-1.500000000E+036.5000000000E+02+
*       2.4900000000E+04               0
GRID*               6218               0-1.500000000E+036.5000000000E+02+
*       2.5500000000E+04               0
GRID*               6219               0-1.500000000E+036.5000000000E+02+
*       2.6100000000E+04               0
GRID*               6220               0-1.500000000E+036.5000000000E+02+
*       2.6700000000E+04               0
GRID*               6221               0-1.500000000E+036.5000000000E+02+
*       2.7300000000E+04               0
GRID*               6222               0-1.500000000E+036.5000000000E+02+
*       2.7900000000E+04               0
GRID*               6223               0-1.500000000E+036.5000000000E+02+
*       2.8500000000E+04               0
GRID*               6224               0-1.500000000E+036.5000000000E+02+
*       2.9100000000E+04               0
GRID*               6225               0-1.500000000E+036.5000000000E+02+
*       2.9700000000E+04               0
GRID*               6226               0-1.500000000E+036.5000000000E+02+
*       3.0300000000E+04               0
GRID*               6227               0-1.500000000E+036.5000000000E+02+
*       3.0900000000E+04               0
GRID*               6228               0-1.500000000E+036.5000000000E+02+
*       3.1500000000E+04               0
GRID*               6229               0-1.500000000E+036.5000000000E+02+
*       3.2100000000E+04               0
GRID*               6230               0-1.500000000E+036.5000000000E+02+
*       3.2700000000E+04               0
GRID*               6231               0-1.500000000E+036.5000000000E+02+
*       3.3300000000E+04               0
GRID*               6232               0-1.500000000E+036.5000000000E+02+
*       3.3900000000E+04               0
GRID*               6233               0-1.500000000E+036.5000000000E+02+
*       3.4500000000E+04               0
GRID*               6234               0-1.500000000E+036.5000000000E+02+
*       3.5100000000E+04               0
GRID*               6235               0-1.500000000E+036.5000000000E+02+
*       3.5700000000E+04               0
GRID*               6236               09.0000000000E+024.9999988556E+01+
*       1.1652900866E-12               0
GRID*               6237               03.0000000000E+024.9999988556E+01+
*       1.1652900866E-12               0
GRID*               6238               0-3.000000000E+024.9999988556E+01+
*       1.1652900866E-12               0
GRID*               6239               0-9.000000000E+024.9999988556E+01+
*       1.1652900866E-12               0
GRID*               6240               01.2000000000E+034.9999988556E+01+
*       1.1652900866E-12               0
GRID*               6241               06.0000000000E+024.9999988556E+01+
*       1.1652900866E-12               0
GRID*               6242               00.0000000000E+004.9999988556E+01+
*       1.1652900866E-12               0
GRID*               6243               0-6.000000000E+024.9999988556E+01+
*       1.1652900866E-12               0
GRID*               6244               0-1.200000000E+034.9999988556E+01+
*       1.1652900866E-12               0
GRID*               6245               09.0000000000E+024.9999988556E+01+
*       3.6000000000E+04               0
GRID*               6246               03.0000000000E+024.9999988556E+01+
*       3.6000000000E+04               0
GRID*               6247               0-3.000000000E+024.9999988556E+01+
*       3.6000000000E+04               0
GRID*               6248               0-9.000000000E+024.9999988556E+01+
*       3.6000000000E+04               0
GRID*               6249               0-1.200000000E+034.9999988556E+01+
*       3.6000000000E+04               0
GRID*               6250               0-6.000000000E+024.9999988556E+01+
*       3.6000000000E+04               0
GRID*               6251               00.0000000000E+004.9999988556E+01+
*       3.6000000000E+04               0
GRID*               6252               06.0000000000E+024.9999988556E+01+
*       3.6000000000E+04               0
GRID*               6253               01.2000000000E+034.9999988556E+01+
*       3.6000000000E+04               0
GRID*               6254               0-9.000000000E+026.5000000000E+02+
*       1.1652900866E-12               0
GRID*               6255               0-3.000000000E+026.5000000000E+02+
*       1.1652900866E-12               0
GRID*               6256               03.0000000000E+026.5000000000E+02+
*       1.1652900866E-12               0
GRID*               6257               09.0000000000E+026.5000000000E+02+
*       1.1652900866E-12               0
GRID*               6258               0-1.200000000E+036.5000000000E+02+
*       1.1652900866E-12               0
GRID*               6259               0-6.000000000E+026.5000000000E+02+
*       1.1652900866E-12               0
GRID*               6260               00.0000000000E+006.5000000000E+02+
*       1.1652900866E-12               0
GRID*               6261               06.0000000000E+026.5000000000E+02+
*       1.1652900866E-12               0
GRID*               6262               01.2000000000E+036.5000000000E+02+
*       1.1652900866E-12               0
GRID*               6263               0-9.000000000E+026.5000000000E+02+
*       3.6000000000E+04               0
GRID*               6264               0-3.000000000E+026.5000000000E+02+
*       3.6000000000E+04               0
GRID*               6265               03.0000000000E+026.5000000000E+02+
*       3.6000000000E+04               0
GRID*               6266               09.0000000000E+026.5000000000E+02+
*       3.6000000000E+04               0
GRID*               6267               0-1.200000000E+036.5000000000E+02+
*       3.6000000000E+04               0
GRID*               6268               0-6.000000000E+026.5000000000E+02+
*       3.6000000000E+04               0
GRID*               6269               00.0000000000E+006.5000000000E+02+
*       3.6000000000E+04               0
GRID*               6270               06.0000000000E+026.5000000000E+02+
*       3.6000000000E+04               0
GRID*               6271               01.2000000000E+036.5000000000E+02+
*       3.6000000000E+04               0
GRID*               6272               01.5000000000E+034.9999988556E+01+
*       3.5400000000E+04               0
GRID*               6273               01.5000000000E+034.9999988556E+01+
*       3.4800000000E+04               0
GRID*               6274               01.5000000000E+034.9999988556E+01+
*       3.4200000000E+04               0
GRID*               6275               01.5000000000E+034.9999988556E+01+
*       3.3600000000E+04               0
GRID*               6276               01.5000000000E+034.9999988556E+01+
*       3.3000000000E+04               0
GRID*               6277               01.5000000000E+034.9999988556E+01+
*       3.2400000000E+04               0
GRID*               6278               01.5000000000E+034.9999988556E+01+
*       3.1800000000E+04               0
GRID*               6279               01.5000000000E+034.9999988556E+01+
*       3.1200000000E+04               0
GRID*               6280               01.5000000000E+034.9999988556E+01+
*       3.0600000000E+04               0
GRID*               6281               01.5000000000E+034.9999988556E+01+
*       3.0000000000E+04               0
GRID*               6282               01.5000000000E+034.9999988556E+01+
*       2.9400000000E+04               0
GRID*               6283               01.5000000000E+034.9999988556E+01+
*       2.8800000000E+04               0
GRID*               6284               01.5000000000E+034.9999988556E+01+
*       2.8200000000E+04               0
GRID*               6285               01.5000000000E+034.9999988556E+01+
*       2.7600000000E+04               0
GRID*               6286               01.5000000000E+034.9999988556E+01+
*       2.7000000000E+04               0
GRID*               6287               01.5000000000E+034.9999988556E+01+
*       2.6400000000E+04               0
GRID*               6288               01.5000000000E+034.9999988556E+01+
*       2.5800000000E+04               0
GRID*               6289               01.5000000000E+034.9999988556E+01+
*       2.5200000000E+04               0
GRID*               6290               01.5000000000E+034.9999988556E+01+
*       2.4600000000E+04               0
GRID*               6291               01.5000000000E+034.9999988556E+01+
*       2.4000000000E+04               0
GRID*               6292               01.5000000000E+034.9999988556E+01+
*       2.3400000000E+04               0
GRID*               6293               01.5000000000E+034.9999988556E+01+
*       2.2800000000E+04               0
GRID*               6294               01.5000000000E+034.9999988556E+01+
*       2.2200000000E+04               0
GRID*               6295               01.5000000000E+034.9999988556E+01+
*       2.1600000000E+04               0
GRID*               6296               01.5000000000E+034.9999988556E+01+
*       2.1000000000E+04               0
GRID*               6297               01.5000000000E+034.9999988556E+01+
*       2.0400000000E+04               0
GRID*               6298               01.5000000000E+034.9999988556E+01+
*       1.9800000000E+04               0
GRID*               6299               01.5000000000E+034.9999988556E+01+
*       1.9200000000E+04               0
GRID*               6300               01.5000000000E+034.9999988556E+01+
*       1.8600000000E+04               0
GRID*               6301               01.5000000000E+034.9999988556E+01+
*       1.8000000000E+04               0
GRID*               6302               01.5000000000E+034.9999988556E+01+
*       1.7400000000E+04               0
GRID*               6303               01.5000000000E+034.9999988556E+01+
*       1.6800000000E+04               0
GRID*               6304               01.5000000000E+034.9999988556E+01+
*       1.6200000000E+04               0
GRID*               6305               01.5000000000E+034.9999988556E+01+
*       1.5600000000E+04               0
GRID*               6306               01.5000000000E+034.9999988556E+01+
*       1.5000000000E+04               0
GRID*               6307               01.5000000000E+034.9999988556E+01+
*       1.4400000000E+04               0
GRID*               6308               01.5000000000E+034.9999988556E+01+
*       1.3800000000E+04               0
GRID*               6309               01.5000000000E+034.9999988556E+01+
*       1.3200000000E+04               0
GRID*               6310               01.5000000000E+034.9999988556E+01+
*       1.2600000000E+04               0
GRID*               6311               01.5000000000E+034.9999988556E+01+
*       1.2000000000E+04               0
GRID*               6312               01.5000000000E+034.9999988556E+01+
*       1.1400000000E+04               0
GRID*               6313               01.5000000000E+034.9999988556E+01+
*       1.0800000000E+04               0
GRID*               6314               01.5000000000E+034.9999988556E+01+
*       1.0200000000E+04               0
GRID*               6315               01.5000000000E+034.9999988556E+01+
*       9.6000000000E+03               0
GRID*               6316               01.5000000000E+034.9999988556E+01+
*       9.0000000000E+03               0
GRID*               6317               01.5000000000E+034.9999988556E+01+
*       8.4000000000E+03               0
GRID*               6318               01.5000000000E+034.9999988556E+01+
*       7.8000000000E+03               0
GRID*               6319               01.5000000000E+034.9999988556E+01+
*       7.2000000000E+03               0
GRID*               6320               01.5000000000E+034.9999988556E+01+
*       6.6000000000E+03               0
GRID*               6321               01.5000000000E+034.9999988556E+01+
*       6.0000000000E+03               0
GRID*               6322               01.5000000000E+034.9999988556E+01+
*       5.4000000000E+03               0
GRID*               6323               01.5000000000E+034.9999988556E+01+
*       4.8000000000E+03               0
GRID*               6324               01.5000000000E+034.9999988556E+01+
*       4.2000000000E+03               0
GRID*               6325               01.5000000000E+034.9999988556E+01+
*       3.6000000000E+03               0
GRID*               6326               01.5000000000E+034.9999988556E+01+
*       3.0000000000E+03               0
GRID*               6327               01.5000000000E+034.9999988556E+01+
*       2.4000000000E+03               0
GRID*               6328               01.5000000000E+034.9999988556E+01+
*       1.8000000000E+03               0
GRID*               6329               01.5000000000E+034.9999988556E+01+
*       1.2000000000E+03               0
GRID*               6330               01.5000000000E+034.9999988556E+01+
*       6.0000000000E+02               0
GRID*               6331               01.5000000000E+034.9999988556E+01+
*       3.0000000000E+02               0
GRID*               6332               01.5000000000E+034.9999988556E+01+
*       3.5700000000E+04               0
GRID*               6333               01.5000000000E+034.9999988556E+01+
*       3.5100000000E+04               0
GRID*               6334               01.5000000000E+034.9999988556E+01+
*       3.4500000000E+04               0
GRID*               6335               01.5000000000E+034.9999988556E+01+
*       3.3900000000E+04               0
GRID*               6336               01.5000000000E+034.9999988556E+01+
*       3.3300000000E+04               0
GRID*               6337               01.5000000000E+034.9999988556E+01+
*       3.2700000000E+04               0
GRID*               6338               01.5000000000E+034.9999988556E+01+
*       3.2100000000E+04               0
GRID*               6339               01.5000000000E+034.9999988556E+01+
*       3.1500000000E+04               0
GRID*               6340               01.5000000000E+034.9999988556E+01+
*       3.0900000000E+04               0
GRID*               6341               01.5000000000E+034.9999988556E+01+
*       3.0300000000E+04               0
GRID*               6342               01.5000000000E+034.9999988556E+01+
*       2.9700000000E+04               0
GRID*               6343               01.5000000000E+034.9999988556E+01+
*       2.9100000000E+04               0
GRID*               6344               01.5000000000E+034.9999988556E+01+
*       2.8500000000E+04               0
GRID*               6345               01.5000000000E+034.9999988556E+01+
*       2.7900000000E+04               0
GRID*               6346               01.5000000000E+034.9999988556E+01+
*       2.7300000000E+04               0
GRID*               6347               01.5000000000E+034.9999988556E+01+
*       2.6700000000E+04               0
GRID*               6348               01.5000000000E+034.9999988556E+01+
*       2.6100000000E+04               0
GRID*               6349               01.5000000000E+034.9999988556E+01+
*       2.5500000000E+04               0
GRID*               6350               01.5000000000E+034.9999988556E+01+
*       2.4900000000E+04               0
GRID*               6351               01.5000000000E+034.9999988556E+01+
*       2.4300000000E+04               0
GRID*               6352               01.5000000000E+034.9999988556E+01+
*       2.3700000000E+04               0
GRID*               6353               01.5000000000E+034.9999988556E+01+
*       2.3100000000E+04               0
GRID*               6354               01.5000000000E+034.9999988556E+01+
*       2.2500000000E+04               0
GRID*               6355               01.5000000000E+034.9999988556E+01+
*       2.1900000000E+04               0
GRID*               6356               01.5000000000E+034.9999988556E+01+
*       2.1300000000E+04               0
GRID*               6357               01.5000000000E+034.9999988556E+01+
*       2.0700000000E+04               0
GRID*               6358               01.5000000000E+034.9999988556E+01+
*       2.0100000000E+04               0
GRID*               6359               01.5000000000E+034.9999988556E+01+
*       1.9500000000E+04               0
GRID*               6360               01.5000000000E+034.9999988556E+01+
*       1.8900000000E+04               0
GRID*               6361               01.5000000000E+034.9999988556E+01+
*       1.8300000000E+04               0
GRID*               6362               01.5000000000E+034.9999988556E+01+
*       1.7700000000E+04               0
GRID*               6363               01.5000000000E+034.9999988556E+01+
*       1.7100000000E+04               0
GRID*               6364               01.5000000000E+034.9999988556E+01+
*       1.6500000000E+04               0
GRID*               6365               01.5000000000E+034.9999988556E+01+
*       1.5900000000E+04               0
GRID*               6366               01.5000000000E+034.9999988556E+01+
*       1.5300000000E+04               0
GRID*               6367               01.5000000000E+034.9999988556E+01+
*       1.4700000000E+04               0
GRID*               6368               01.5000000000E+034.9999988556E+01+
*       1.4100000000E+04               0
GRID*               6369               01.5000000000E+034.9999988556E+01+
*       1.3500000000E+04               0
GRID*               6370               01.5000000000E+034.9999988556E+01+
*       1.2900000000E+04               0
GRID*               6371               01.5000000000E+034.9999988556E+01+
*       1.2300000000E+04               0
GRID*               6372               01.5000000000E+034.9999988556E+01+
*       1.1700000000E+04               0
GRID*               6373               01.5000000000E+034.9999988556E+01+
*       1.1100000000E+04               0
GRID*               6374               01.5000000000E+034.9999988556E+01+
*       1.0500000000E+04               0
GRID*               6375               01.5000000000E+034.9999988556E+01+
*       9.9000000000E+03               0
GRID*               6376               01.5000000000E+034.9999988556E+01+
*       9.3000000000E+03               0
GRID*               6377               01.5000000000E+034.9999988556E+01+
*       8.7000000000E+03               0
GRID*               6378               01.5000000000E+034.9999988556E+01+
*       8.1000000000E+03               0
GRID*               6379               01.5000000000E+034.9999988556E+01+
*       7.5000000000E+03               0
GRID*               6380               01.5000000000E+034.9999988556E+01+
*       6.9000000000E+03               0
GRID*               6381               01.5000000000E+034.9999988556E+01+
*       6.3000000000E+03               0
GRID*               6382               01.5000000000E+034.9999988556E+01+
*       5.7000000000E+03               0
GRID*               6383               01.5000000000E+034.9999988556E+01+
*       5.1000000000E+03               0
GRID*               6384               01.5000000000E+034.9999988556E+01+
*       4.5000000000E+03               0
GRID*               6385               01.5000000000E+034.9999988556E+01+
*       3.9000000000E+03               0
GRID*               6386               01.5000000000E+034.9999988556E+01+
*       3.3000000000E+03               0
GRID*               6387               01.5000000000E+034.9999988556E+01+
*       2.7000000000E+03               0
GRID*               6388               01.5000000000E+034.9999988556E+01+
*       2.1000000000E+03               0
GRID*               6389               01.5000000000E+034.9999988556E+01+
*       1.5000000000E+03               0
GRID*               6390               01.5000000000E+034.9999988556E+01+
*       9.0000000000E+02               0
GRID*               6391               01.5000000000E+033.4999999428E+02+
*       1.1652900866E-12               0
GRID*               6392               01.5000000000E+033.4999999428E+02+
*       3.6000000000E+04               0
GRID*               6393               01.5000000000E+036.5000000000E+02+
*       3.5400000000E+04               0
GRID*               6394               01.5000000000E+036.5000000000E+02+
*       3.4800000000E+04               0
GRID*               6395               01.5000000000E+036.5000000000E+02+
*       3.4200000000E+04               0
GRID*               6396               01.5000000000E+036.5000000000E+02+
*       3.3600000000E+04               0
GRID*               6397               01.5000000000E+036.5000000000E+02+
*       3.3000000000E+04               0
GRID*               6398               01.5000000000E+036.5000000000E+02+
*       3.2400000000E+04               0
GRID*               6399               01.5000000000E+036.5000000000E+02+
*       3.1800000000E+04               0
GRID*               6400               01.5000000000E+036.5000000000E+02+
*       3.1200000000E+04               0
GRID*               6401               01.5000000000E+036.5000000000E+02+
*       3.0600000000E+04               0
GRID*               6402               01.5000000000E+036.5000000000E+02+
*       3.0000000000E+04               0
GRID*               6403               01.5000000000E+036.5000000000E+02+
*       2.9400000000E+04               0
GRID*               6404               01.5000000000E+036.5000000000E+02+
*       2.8800000000E+04               0
GRID*               6405               01.5000000000E+036.5000000000E+02+
*       2.8200000000E+04               0
GRID*               6406               01.5000000000E+036.5000000000E+02+
*       2.7600000000E+04               0
GRID*               6407               01.5000000000E+036.5000000000E+02+
*       2.7000000000E+04               0
GRID*               6408               01.5000000000E+036.5000000000E+02+
*       2.6400000000E+04               0
GRID*               6409               01.5000000000E+036.5000000000E+02+
*       2.5800000000E+04               0
GRID*               6410               01.5000000000E+036.5000000000E+02+
*       2.5200000000E+04               0
GRID*               6411               01.5000000000E+036.5000000000E+02+
*       2.4600000000E+04               0
GRID*               6412               01.5000000000E+036.5000000000E+02+
*       2.4000000000E+04               0
GRID*               6413               01.5000000000E+036.5000000000E+02+
*       2.3400000000E+04               0
GRID*               6414               01.5000000000E+036.5000000000E+02+
*       2.2800000000E+04               0
GRID*               6415               01.5000000000E+036.5000000000E+02+
*       2.2200000000E+04               0
GRID*               6416               01.5000000000E+036.5000000000E+02+
*       2.1600000000E+04               0
GRID*               6417               01.5000000000E+036.5000000000E+02+
*       2.1000000000E+04               0
GRID*               6418               01.5000000000E+036.5000000000E+02+
*       2.0400000000E+04               0
GRID*               6419               01.5000000000E+036.5000000000E+02+
*       1.9800000000E+04               0
GRID*               6420               01.5000000000E+036.5000000000E+02+
*       1.9200000000E+04               0
GRID*               6421               01.5000000000E+036.5000000000E+02+
*       1.8600000000E+04               0
GRID*               6422               01.5000000000E+036.5000000000E+02+
*       1.8000000000E+04               0
GRID*               6423               01.5000000000E+036.5000000000E+02+
*       1.7400000000E+04               0
GRID*               6424               01.5000000000E+036.5000000000E+02+
*       1.6800000000E+04               0
GRID*               6425               01.5000000000E+036.5000000000E+02+
*       1.6200000000E+04               0
GRID*               6426               01.5000000000E+036.5000000000E+02+
*       1.5600000000E+04               0
GRID*               6427               01.5000000000E+036.5000000000E+02+
*       1.5000000000E+04               0
GRID*               6428               01.5000000000E+036.5000000000E+02+
*       1.4400000000E+04               0
GRID*               6429               01.5000000000E+036.5000000000E+02+
*       1.3800000000E+04               0
GRID*               6430               01.5000000000E+036.5000000000E+02+
*       1.3200000000E+04               0
GRID*               6431               01.5000000000E+036.5000000000E+02+
*       1.2600000000E+04               0
GRID*               6432               01.5000000000E+036.5000000000E+02+
*       1.2000000000E+04               0
GRID*               6433               01.5000000000E+036.5000000000E+02+
*       1.1400000000E+04               0
GRID*               6434               01.5000000000E+036.5000000000E+02+
*       1.0800000000E+04               0
GRID*               6435               01.5000000000E+036.5000000000E+02+
*       1.0200000000E+04               0
GRID*               6436               01.5000000000E+036.5000000000E+02+
*       9.6000000000E+03               0
GRID*               6437               01.5000000000E+036.5000000000E+02+
*       9.0000000000E+03               0
GRID*               6438               01.5000000000E+036.5000000000E+02+
*       8.4000000000E+03               0
GRID*               6439               01.5000000000E+036.5000000000E+02+
*       7.8000000000E+03               0
GRID*               6440               01.5000000000E+036.5000000000E+02+
*       7.2000000000E+03               0
GRID*               6441               01.5000000000E+036.5000000000E+02+
*       6.6000000000E+03               0
GRID*               6442               01.5000000000E+036.5000000000E+02+
*       6.0000000000E+03               0
GRID*               6443               01.5000000000E+036.5000000000E+02+
*       5.4000000000E+03               0
GRID*               6444               01.5000000000E+036.5000000000E+02+
*       4.8000000000E+03               0
GRID*               6445               01.5000000000E+036.5000000000E+02+
*       4.2000000000E+03               0
GRID*               6446               01.5000000000E+036.5000000000E+02+
*       3.6000000000E+03               0
GRID*               6447               01.5000000000E+036.5000000000E+02+
*       3.0000000000E+03               0
GRID*               6448               01.5000000000E+036.5000000000E+02+
*       2.4000000000E+03               0
GRID*               6449               01.5000000000E+036.5000000000E+02+
*       1.8000000000E+03               0
GRID*               6450               01.5000000000E+036.5000000000E+02+
*       1.2000000000E+03               0
GRID*               6451               01.5000000000E+036.5000000000E+02+
*       6.0000000000E+02               0
GRID*               6452               01.5000000000E+036.5000000000E+02+
*       3.0000000000E+02               0
GRID*               6453               01.5000000000E+036.5000000000E+02+
*       3.5700000000E+04               0
GRID*               6454               01.5000000000E+036.5000000000E+02+
*       3.5100000000E+04               0
GRID*               6455               01.5000000000E+036.5000000000E+02+
*       3.4500000000E+04               0
GRID*               6456               01.5000000000E+036.5000000000E+02+
*       3.3900000000E+04               0
GRID*               6457               01.5000000000E+036.5000000000E+02+
*       3.3300000000E+04               0
GRID*               6458               01.5000000000E+036.5000000000E+02+
*       3.2700000000E+04               0
GRID*               6459               01.5000000000E+036.5000000000E+02+
*       3.2100000000E+04               0
GRID*               6460               01.5000000000E+036.5000000000E+02+
*       3.1500000000E+04               0
GRID*               6461               01.5000000000E+036.5000000000E+02+
*       3.0900000000E+04               0
GRID*               6462               01.5000000000E+036.5000000000E+02+
*       3.0300000000E+04               0
GRID*               6463               01.5000000000E+036.5000000000E+02+
*       2.9700000000E+04               0
GRID*               6464               01.5000000000E+036.5000000000E+02+
*       2.9100000000E+04               0
GRID*               6465               01.5000000000E+036.5000000000E+02+
*       2.8500000000E+04               0
GRID*               6466               01.5000000000E+036.5000000000E+02+
*       2.7900000000E+04               0
GRID*               6467               01.5000000000E+036.5000000000E+02+
*       2.7300000000E+04               0
GRID*               6468               01.5000000000E+036.5000000000E+02+
*       2.6700000000E+04               0
GRID*               6469               01.5000000000E+036.5000000000E+02+
*       2.6100000000E+04               0
GRID*               6470               01.5000000000E+036.5000000000E+02+
*       2.5500000000E+04               0
GRID*               6471               01.5000000000E+036.5000000000E+02+
*       2.4900000000E+04               0
GRID*               6472               01.5000000000E+036.5000000000E+02+
*       2.4300000000E+04               0
GRID*               6473               01.5000000000E+036.5000000000E+02+
*       2.3700000000E+04               0
GRID*               6474               01.5000000000E+036.5000000000E+02+
*       2.3100000000E+04               0
GRID*               6475               01.5000000000E+036.5000000000E+02+
*       2.2500000000E+04               0
GRID*               6476               01.5000000000E+036.5000000000E+02+
*       2.1900000000E+04               0
GRID*               6477               01.5000000000E+036.5000000000E+02+
*       2.1300000000E+04               0
GRID*               6478               01.5000000000E+036.5000000000E+02+
*       2.0700000000E+04               0
GRID*               6479               01.5000000000E+036.5000000000E+02+
*       2.0100000000E+04               0
GRID*               6480               01.5000000000E+036.5000000000E+02+
*       1.9500000000E+04               0
GRID*               6481               01.5000000000E+036.5000000000E+02+
*       1.8900000000E+04               0
GRID*               6482               01.5000000000E+036.5000000000E+02+
*       1.8300000000E+04               0
GRID*               6483               01.5000000000E+036.5000000000E+02+
*       1.7700000000E+04               0
GRID*               6484               01.5000000000E+036.5000000000E+02+
*       1.7100000000E+04               0
GRID*               6485               01.5000000000E+036.5000000000E+02+
*       1.6500000000E+04               0
GRID*               6486               01.5000000000E+036.5000000000E+02+
*       1.5900000000E+04               0
GRID*               6487               01.5000000000E+036.5000000000E+02+
*       1.5300000000E+04               0
GRID*               6488               01.5000000000E+036.5000000000E+02+
*       1.4700000000E+04               0
GRID*               6489               01.5000000000E+036.5000000000E+02+
*       1.4100000000E+04               0
GRID*               6490               01.5000000000E+036.5000000000E+02+
*       1.3500000000E+04               0
GRID*               6491               01.5000000000E+036.5000000000E+02+
*       1.2900000000E+04               0
GRID*               6492               01.5000000000E+036.5000000000E+02+
*       1.2300000000E+04               0
GRID*               6493               01.5000000000E+036.5000000000E+02+
*       1.1700000000E+04               0
GRID*               6494               01.5000000000E+036.5000000000E+02+
*       1.1100000000E+04               0
GRID*               6495               01.5000000000E+036.5000000000E+02+
*       1.0500000000E+04               0
GRID*               6496               01.5000000000E+036.5000000000E+02+
*       9.9000000000E+03               0
GRID*               6497               01.5000000000E+036.5000000000E+02+
*       9.3000000000E+03               0
GRID*               6498               01.5000000000E+036.5000000000E+02+
*       8.7000000000E+03               0
GRID*               6499               01.5000000000E+036.5000000000E+02+
*       8.1000000000E+03               0
GRID*               6500               01.5000000000E+036.5000000000E+02+
*       7.5000000000E+03               0
GRID*               6501               01.5000000000E+036.5000000000E+02+
*       6.9000000000E+03               0
GRID*               6502               01.5000000000E+036.5000000000E+02+
*       6.3000000000E+03               0
GRID*               6503               01.5000000000E+036.5000000000E+02+
*       5.7000000000E+03               0
GRID*               6504               01.5000000000E+036.5000000000E+02+
*       5.1000000000E+03               0
GRID*               6505               01.5000000000E+036.5000000000E+02+
*       4.5000000000E+03               0
GRID*               6506               01.5000000000E+036.5000000000E+02+
*       3.9000000000E+03               0
GRID*               6507               01.5000000000E+036.5000000000E+02+
*       3.3000000000E+03               0
GRID*               6508               01.5000000000E+036.5000000000E+02+
*       2.7000000000E+03               0
GRID*               6509               01.5000000000E+036.5000000000E+02+
*       2.1000000000E+03               0
GRID*               6510               01.5000000000E+036.5000000000E+02+
*       1.5000000000E+03               0
GRID*               6511               01.5000000000E+036.5000000000E+02+
*       9.0000000000E+02               0
GRID*               4387               09.0000000000E+024.9999988556E+01+
*       6.0000000000E+02               0
GRID*               4388               03.0000000000E+024.9999988556E+01+
*       6.0000000000E+02               0
GRID*               4389               0-3.000000000E+024.9999988556E+01+
*       6.0000000000E+02               0
GRID*               4390               0-9.000000000E+024.9999988556E+01+
*       6.0000000000E+02               0
GRID*               4391               0-9.000000000E+024.9999988556E+01+
*       1.2000000000E+03               0
GRID*               4392               0-9.000000000E+024.9999988556E+01+
*       1.8000000000E+03               0
GRID*               4393               0-9.000000000E+024.9999988556E+01+
*       2.4000000000E+03               0
GRID*               4394               0-9.000000000E+024.9999988556E+01+
*       3.0000000000E+03               0
GRID*               4395               0-9.000000000E+024.9999988556E+01+
*       3.6000000000E+03               0
GRID*               4396               0-9.000000000E+024.9999988556E+01+
*       4.2000000000E+03               0
GRID*               4397               0-9.000000000E+024.9999988556E+01+
*       4.8000000000E+03               0
GRID*               4398               0-9.000000000E+024.9999988556E+01+
*       5.4000000000E+03               0
GRID*               4399               0-9.000000000E+024.9999988556E+01+
*       6.0000000000E+03               0
GRID*               4400               0-9.000000000E+024.9999988556E+01+
*       6.6000000000E+03               0
GRID*               4401               0-9.000000000E+024.9999988556E+01+
*       7.2000000000E+03               0
GRID*               4402               0-9.000000000E+024.9999988556E+01+
*       7.8000000000E+03               0
GRID*               4403               0-9.000000000E+024.9999988556E+01+
*       8.4000000000E+03               0
GRID*               4404               0-9.000000000E+024.9999988556E+01+
*       9.0000000000E+03               0
GRID*               4405               0-9.000000000E+024.9999988556E+01+
*       9.6000004948E+03               0
GRID*               4406               0-9.000000000E+024.9999988556E+01+
*       1.0200000000E+04               0
GRID*               4407               0-9.000000000E+024.9999988556E+01+
*       1.0800000000E+04               0
GRID*               4408               0-9.000000000E+024.9999988556E+01+
*       1.1400000000E+04               0
GRID*               4409               0-9.000000000E+024.9999988556E+01+
*       1.2000000000E+04               0
GRID*               4410               0-9.000000000E+024.9999988556E+01+
*       1.2600000000E+04               0
GRID*               4411               0-9.000000000E+024.9999988556E+01+
*       1.3200000000E+04               0
GRID*               4412               0-9.000000000E+024.9999988556E+01+
*       1.3800000000E+04               0
GRID*               4413               0-9.000000000E+024.9999988556E+01+
*       1.4400000000E+04               0
GRID*               4414               0-9.000000000E+024.9999988556E+01+
*       1.5000000000E+04               0
GRID*               4415               0-9.000000000E+024.9999988556E+01+
*       1.5600000000E+04               0
GRID*               4416               0-9.000000000E+024.9999988556E+01+
*       1.6200000000E+04               0
GRID*               4417               0-9.000000000E+024.9999988556E+01+
*       1.6800000000E+04               0
GRID*               4418               0-9.000000000E+024.9999988556E+01+
*       1.7400000000E+04               0
GRID*               4419               0-9.000000000E+024.9999988556E+01+
*       1.8000000000E+04               0
GRID*               4420               0-9.000000000E+024.9999988556E+01+
*       1.8600000000E+04               0
GRID*               4421               0-9.000000000E+024.9999988556E+01+
*       1.9200000000E+04               0
GRID*               4422               0-9.000000000E+024.9999988556E+01+
*       1.9800000000E+04               0
GRID*               4423               0-9.000000000E+024.9999988556E+01+
*       2.0400000000E+04               0
GRID*               4424               0-9.000000000E+024.9999988556E+01+
*       2.1000000000E+04               0
GRID*               4425               0-9.000000000E+024.9999988556E+01+
*       2.1600000000E+04               0
GRID*               4426               0-9.000000000E+024.9999988556E+01+
*       2.2200000000E+04               0
GRID*               4427               0-9.000000000E+024.9999988556E+01+
*       2.2800000000E+04               0
GRID*               4428               0-9.000000000E+024.9999988556E+01+
*       2.3400000000E+04               0
GRID*               4429               0-9.000000000E+024.9999988556E+01+
*       2.4000000000E+04               0
GRID*               4430               0-9.000000000E+024.9999988556E+01+
*       2.4600000000E+04               0
GRID*               4431               0-9.000000000E+024.9999988556E+01+
*       2.5200000000E+04               0
GRID*               4432               0-9.000000000E+024.9999988556E+01+
*       2.5800000000E+04               0
GRID*               4433               0-9.000000000E+024.9999988556E+01+
*       2.6400000000E+04               0
GRID*               4434               0-9.000000000E+024.9999988556E+01+
*       2.7000000000E+04               0
GRID*               4435               0-9.000000000E+024.9999988556E+01+
*       2.7600000000E+04               0
GRID*               4436               0-9.000000000E+024.9999988556E+01+
*       2.8200000000E+04               0
GRID*               4437               0-9.000000000E+024.9999988556E+01+
*       2.8800000000E+04               0
GRID*               4438               0-9.000000000E+024.9999988556E+01+
*       2.9400000000E+04               0
GRID*               4439               0-9.000000000E+024.9999988556E+01+
*       3.0000000000E+04               0
GRID*               4440               0-9.000000000E+024.9999988556E+01+
*       3.0600000000E+04               0
GRID*               4441               0-9.000000000E+024.9999988556E+01+
*       3.1200000000E+04               0
GRID*               4442               0-9.000000000E+024.9999988556E+01+
*       3.1800000000E+04               0
GRID*               4443               0-9.000000000E+024.9999988556E+01+
*       3.2400000000E+04               0
GRID*               4444               0-9.000000000E+024.9999988556E+01+
*       3.3000000000E+04               0
GRID*               4445               0-9.000001237E+024.9999988556E+01+
*       3.3600000990E+04               0
GRID*               4446               0-9.000000000E+024.9999988556E+01+
*       3.4200000000E+04               0
GRID*               4447               0-9.000000000E+024.9999988556E+01+
*       3.4800000000E+04               0
GRID*               4448               0-9.000000000E+024.9999988556E+01+
*       3.5400000000E+04               0
GRID*               4449               0-3.000000000E+024.9999988556E+01+
*       3.5400000000E+04               0
GRID*               4450               03.0000000000E+024.9999988556E+01+
*       3.5400000000E+04               0
GRID*               4451               09.0000000000E+024.9999988556E+01+
*       3.5400000000E+04               0
GRID*               4452               09.0000000000E+024.9999988556E+01+
*       3.4800000000E+04               0
GRID*               4453               09.0000000000E+024.9999988556E+01+
*       3.4200000000E+04               0
GRID*               4454               09.0000000000E+024.9999988556E+01+
*       3.3600000000E+04               0
GRID*               4455               09.0000000000E+024.9999988556E+01+
*       3.3000000000E+04               0
GRID*               4456               09.0000000000E+024.9999988556E+01+
*       3.2400000000E+04               0
GRID*               4457               09.0000000000E+024.9999988556E+01+
*       3.1800000000E+04               0
GRID*               4458               09.0000000000E+024.9999988556E+01+
*       3.1200000000E+04               0
GRID*               4459               09.0000000000E+024.9999988556E+01+
*       3.0600000000E+04               0
GRID*               4460               09.0000000000E+024.9999988556E+01+
*       3.0000000000E+04               0
GRID*               4461               09.0000000000E+024.9999988556E+01+
*       2.9400000000E+04               0
GRID*               4462               09.0000000000E+024.9999988556E+01+
*       2.8800000000E+04               0
GRID*               4463               09.0000000000E+024.9999988556E+01+
*       2.8200000000E+04               0
GRID*               4464               09.0000000000E+024.9999988556E+01+
*       2.7600000000E+04               0
GRID*               4465               09.0000000000E+024.9999988556E+01+
*       2.7000000000E+04               0
GRID*               4466               09.0000000000E+024.9999988556E+01+
*       2.6400000000E+04               0
GRID*               4467               09.0000000000E+024.9999988556E+01+
*       2.5800000000E+04               0
GRID*               4468               09.0000000000E+024.9999988556E+01+
*       2.5200000000E+04               0
GRID*               4469               09.0000000000E+024.9999988556E+01+
*       2.4600000000E+04               0
GRID*               4470               09.0000000000E+024.9999988556E+01+
*       2.4000000000E+04               0
GRID*               4471               09.0000000000E+024.9999988556E+01+
*       2.3400000000E+04               0
GRID*               4472               09.0000000000E+024.9999988556E+01+
*       2.2800000000E+04               0
GRID*               4473               09.0000000000E+024.9999988556E+01+
*       2.2200000000E+04               0
GRID*               4474               09.0000000000E+024.9999988556E+01+
*       2.1600000000E+04               0
GRID*               4475               09.0000000000E+024.9999988556E+01+
*       2.1000000000E+04               0
GRID*               4476               09.0000000000E+024.9999988556E+01+
*       2.0400000000E+04               0
GRID*               4477               09.0000000000E+024.9999988556E+01+
*       1.9800000000E+04               0
GRID*               4478               09.0000000000E+024.9999988556E+01+
*       1.9200000000E+04               0
GRID*               4479               09.0000000000E+024.9999988556E+01+
*       1.8600000000E+04               0
GRID*               4480               09.0000000000E+024.9999988556E+01+
*       1.8000000000E+04               0
GRID*               4481               09.0000000000E+024.9999988556E+01+
*       1.7400000000E+04               0
GRID*               4482               09.0000000000E+024.9999988556E+01+
*       1.6800000000E+04               0
GRID*               4483               09.0000000000E+024.9999988556E+01+
*       1.6200000000E+04               0
GRID*               4484               09.0000000000E+024.9999988556E+01+
*       1.5600000000E+04               0
GRID*               4485               09.0000000000E+024.9999988556E+01+
*       1.5000000000E+04               0
GRID*               4486               09.0000000000E+024.9999988556E+01+
*       1.4400000990E+04               0
GRID*               4487               09.0000000000E+024.9999988556E+01+
*       1.3800000000E+04               0
GRID*               4488               09.0000000000E+024.9999988556E+01+
*       1.3200000000E+04               0
GRID*               4489               09.0000000000E+024.9999988556E+01+
*       1.2600000000E+04               0
GRID*               4490               09.0000000000E+024.9999988556E+01+
*       1.2000000000E+04               0
GRID*               4491               09.0000000000E+024.9999988556E+01+
*       1.1400000000E+04               0
GRID*               4492               09.0000000000E+024.9999988556E+01+
*       1.0800000000E+04               0
GRID*               4493               09.0000000000E+024.9999988556E+01+
*       1.0200000000E+04               0
GRID*               4494               09.0000000000E+024.9999988556E+01+
*       9.6000000000E+03               0
GRID*               4495               09.0000000000E+024.9999988556E+01+
*       9.0000000000E+03               0
GRID*               4496               09.0000000000E+024.9999988556E+01+
*       8.4000000000E+03               0
GRID*               4497               09.0000000000E+024.9999988556E+01+
*       7.8000000000E+03               0
GRID*               4498               09.0000000000E+024.9999988556E+01+
*       7.2000000000E+03               0
GRID*               4499               09.0000000000E+024.9999988556E+01+
*       6.6000000000E+03               0
GRID*               4500               09.0000000000E+024.9999988556E+01+
*       6.0000000000E+03               0
GRID*               4501               09.0000000000E+024.9999988556E+01+
*       5.4000000000E+03               0
GRID*               4502               09.0000000000E+024.9999988556E+01+
*       4.8000000000E+03               0
GRID*               4503               09.0000000000E+024.9999988556E+01+
*       4.2000000000E+03               0
GRID*               4504               09.0000000000E+024.9999988556E+01+
*       3.6000000000E+03               0
GRID*               4505               09.0000000000E+024.9999988556E+01+
*       3.0000000000E+03               0
GRID*               4506               09.0000000000E+024.9999988556E+01+
*       2.4000004948E+03               0
GRID*               4507               09.0000000000E+024.9999988556E+01+
*       1.8000000000E+03               0
GRID*               4508               09.0000000000E+024.9999988556E+01+
*       1.2000000000E+03               0
GRID*               4509               03.0000000000E+024.9999988556E+01+
*       1.2000000000E+03               0
GRID*               4510               0-3.000000000E+024.9999988556E+01+
*       1.2000000000E+03               0
GRID*               4511               0-3.000000000E+024.9999988556E+01+
*       1.8000000000E+03               0
GRID*               4512               0-3.000000000E+024.9999988556E+01+
*       2.4000000000E+03               0
GRID*               4513               0-3.000000000E+024.9999988556E+01+
*       3.0000000000E+03               0
GRID*               4514               0-3.000000000E+024.9999988556E+01+
*       3.6000000000E+03               0
GRID*               4515               0-3.000000000E+024.9999988556E+01+
*       4.2000000000E+03               0
GRID*               4516               0-3.000000000E+024.9999988556E+01+
*       4.8000000000E+03               0
GRID*               4517               0-3.000000000E+024.9999988556E+01+
*       5.4000000000E+03               0
GRID*               4518               0-3.000000000E+024.9999988556E+01+
*       6.0000000000E+03               0
GRID*               4519               0-3.000000000E+024.9999988556E+01+
*       6.6000000000E+03               0
GRID*               4520               0-3.000000000E+024.9999988556E+01+
*       7.2000006060E+03               0
GRID*               4521               0-3.000000000E+024.9999988556E+01+
*       7.8000000000E+03               0
GRID*               4522               0-3.000000000E+024.9999988556E+01+
*       8.4000000000E+03               0
GRID*               4523               0-3.000000000E+024.9999988556E+01+
*       9.0000000000E+03               0
GRID*               4524               0-3.000000000E+024.9999988556E+01+
*       9.6000000000E+03               0
GRID*               4525               0-3.000000000E+024.9999988556E+01+
*       1.0200000000E+04               0
GRID*               4526               0-3.000000000E+024.9999988556E+01+
*       1.0800000000E+04               0
GRID*               4527               0-3.000000000E+024.9999988556E+01+
*       1.1400000000E+04               0
GRID*               4528               0-3.000000000E+024.9999988556E+01+
*       1.2000000000E+04               0
GRID*               4529               0-3.000000000E+024.9999988556E+01+
*       1.2600000000E+04               0
GRID*               4530               0-3.000000000E+024.9999988556E+01+
*       1.3200000000E+04               0
GRID*               4531               0-3.000000000E+024.9999988556E+01+
*       1.3800000000E+04               0
GRID*               4532               0-3.000000000E+024.9999988556E+01+
*       1.4400000000E+04               0
GRID*               4533               0-3.000000000E+024.9999988556E+01+
*       1.5000000000E+04               0
GRID*               4534               0-3.000000000E+024.9999988556E+01+
*       1.5600000000E+04               0
GRID*               4535               0-3.000000000E+024.9999988556E+01+
*       1.6200000000E+04               0
GRID*               4536               0-3.000000000E+024.9999988556E+01+
*       1.6800000000E+04               0
GRID*               4537               0-3.000000000E+024.9999988556E+01+
*       1.7400000000E+04               0
GRID*               4538               0-3.000000000E+024.9999988556E+01+
*       1.8000000000E+04               0
GRID*               4539               0-3.000000000E+024.9999988556E+01+
*       1.8600000000E+04               0
GRID*               4540               0-3.000000000E+024.9999988556E+01+
*       1.9200001212E+04               0
GRID*               4541               0-3.000000000E+024.9999988556E+01+
*       1.9800000000E+04               0
GRID*               4542               0-3.000000000E+024.9999988556E+01+
*       2.0400000000E+04               0
GRID*               4543               0-3.000000000E+024.9999988556E+01+
*       2.1000000000E+04               0
GRID*               4544               0-3.000000000E+024.9999988556E+01+
*       2.1600000000E+04               0
GRID*               4545               0-3.000000000E+024.9999988556E+01+
*       2.2200000000E+04               0
GRID*               4546               0-3.000000000E+024.9999988556E+01+
*       2.2800000000E+04               0
GRID*               4547               0-3.000000000E+024.9999988556E+01+
*       2.3400000000E+04               0
GRID*               4548               0-3.000000000E+024.9999988556E+01+
*       2.4000000000E+04               0
GRID*               4549               0-3.000000000E+024.9999988556E+01+
*       2.4600000000E+04               0
GRID*               4550               0-3.000000000E+024.9999988556E+01+
*       2.5200000000E+04               0
GRID*               4551               0-3.000000000E+024.9999988556E+01+
*       2.5800000000E+04               0
GRID*               4552               0-3.000000000E+024.9999988556E+01+
*       2.6400000000E+04               0
GRID*               4553               0-3.000000000E+024.9999988556E+01+
*       2.7000000000E+04               0
GRID*               4554               0-3.000000000E+024.9999988556E+01+
*       2.7600000000E+04               0
GRID*               4555               0-3.000000000E+024.9999988556E+01+
*       2.8200000000E+04               0
GRID*               4556               0-3.000000000E+024.9999988556E+01+
*       2.8800000000E+04               0
GRID*               4557               0-3.000000000E+024.9999988556E+01+
*       2.9400000000E+04               0
GRID*               4558               0-3.000000000E+024.9999988556E+01+
*       3.0000000000E+04               0
GRID*               4559               0-3.000000000E+024.9999988556E+01+
*       3.0600000000E+04               0
GRID*               4560               0-3.000000000E+024.9999988556E+01+
*       3.1200000000E+04               0
GRID*               4561               0-3.000000000E+024.9999988556E+01+
*       3.1800000000E+04               0
GRID*               4562               0-3.000000000E+024.9999988556E+01+
*       3.2400000000E+04               0
GRID*               4563               0-3.000000000E+024.9999988556E+01+
*       3.3000000000E+04               0
GRID*               4564               0-3.000000000E+024.9999988556E+01+
*       3.3600000000E+04               0
GRID*               4565               0-3.000000000E+024.9999988556E+01+
*       3.4200000000E+04               0
GRID*               4566               0-3.000000000E+024.9999988556E+01+
*       3.4800000000E+04               0
GRID*               4567               03.0000000000E+024.9999988556E+01+
*       3.4800000000E+04               0
GRID*               4568               03.0000000000E+024.9999988556E+01+
*       3.4200000000E+04               0
GRID*               4569               03.0000000000E+024.9999988556E+01+
*       3.3600000000E+04               0
GRID*               4570               03.0000000000E+024.9999988556E+01+
*       3.3000000000E+04               0
GRID*               4571               03.0000000000E+024.9999988556E+01+
*       3.2400000000E+04               0
GRID*               4572               03.0000000000E+024.9999988556E+01+
*       3.1800000000E+04               0
GRID*               4573               03.0000000000E+024.9999988556E+01+
*       3.1200000000E+04               0
GRID*               4574               03.0000000000E+024.9999988556E+01+
*       3.0600000000E+04               0
GRID*               4575               03.0000000000E+024.9999988556E+01+
*       3.0000000000E+04               0
GRID*               4576               03.0000000000E+024.9999988556E+01+
*       2.9400000000E+04               0
GRID*               4577               02.9999984851E+024.9999988556E+01+
*       2.8800001212E+04               0
GRID*               4578               03.0000000000E+024.9999988556E+01+
*       2.8200000000E+04               0
GRID*               4579               03.0000000000E+024.9999988556E+01+
*       2.7600000000E+04               0
GRID*               4580               03.0000000000E+024.9999988556E+01+
*       2.7000000000E+04               0
GRID*               4581               03.0000000000E+024.9999988556E+01+
*       2.6400000000E+04               0
GRID*               4582               03.0000000000E+024.9999988556E+01+
*       2.5800000000E+04               0
GRID*               4583               03.0000000000E+024.9999988556E+01+
*       2.5200000000E+04               0
GRID*               4584               03.0000000000E+024.9999988556E+01+
*       2.4600000000E+04               0
GRID*               4585               03.0000000000E+024.9999988556E+01+
*       2.4000000000E+04               0
GRID*               4586               03.0000000000E+024.9999988556E+01+
*       2.3400000000E+04               0
GRID*               4587               03.0000000000E+024.9999988556E+01+
*       2.2800000000E+04               0
GRID*               4588               03.0000000000E+024.9999988556E+01+
*       2.2200000000E+04               0
GRID*               4589               03.0000000000E+024.9999988556E+01+
*       2.1600000000E+04               0
GRID*               4590               03.0000000000E+024.9999988556E+01+
*       2.1000000000E+04               0
GRID*               4591               03.0000000000E+024.9999988556E+01+
*       2.0400000000E+04               0
GRID*               4592               03.0000000000E+024.9999988556E+01+
*       1.9800000000E+04               0
GRID*               4593               03.0000000000E+024.9999988556E+01+
*       1.9200000000E+04               0
GRID*               4594               03.0000000000E+024.9999988556E+01+
*       1.8600000000E+04               0
GRID*               4595               03.0000000000E+024.9999988556E+01+
*       1.8000000000E+04               0
GRID*               4596               03.0000000000E+024.9999988556E+01+
*       1.7400000000E+04               0
GRID*               4597               03.0000000000E+024.9999988556E+01+
*       1.6800000000E+04               0
GRID*               4598               03.0000000000E+024.9999988556E+01+
*       1.6200000000E+04               0
GRID*               4599               03.0000000000E+024.9999988556E+01+
*       1.5600000000E+04               0
GRID*               4600               03.0000000000E+024.9999988556E+01+
*       1.5000000000E+04               0
GRID*               4601               03.0000000000E+024.9999988556E+01+
*       1.4400000000E+04               0
GRID*               4602               03.0000000000E+024.9999988556E+01+
*       1.3800000000E+04               0
GRID*               4603               03.0000000000E+024.9999988556E+01+
*       1.3200000000E+04               0
GRID*               4604               03.0000000000E+024.9999988556E+01+
*       1.2600000000E+04               0
GRID*               4605               03.0000000000E+024.9999988556E+01+
*       1.2000000000E+04               0
GRID*               4606               03.0000000000E+024.9999988556E+01+
*       1.1400000000E+04               0
GRID*               4607               03.0000000000E+024.9999988556E+01+
*       1.0800000000E+04               0
GRID*               4608               03.0000000000E+024.9999988556E+01+
*       1.0200000000E+04               0
GRID*               4609               03.0000000000E+024.9999988556E+01+
*       9.6000000000E+03               0
GRID*               4610               03.0000000000E+024.9999988556E+01+
*       9.0000000000E+03               0
GRID*               4611               03.0000000000E+024.9999988556E+01+
*       8.4000000000E+03               0
GRID*               4612               03.0000000000E+024.9999988556E+01+
*       7.8000000000E+03               0
GRID*               4613               03.0000000000E+024.9999988556E+01+
*       7.2000000000E+03               0
GRID*               4614               03.0000000000E+024.9999988556E+01+
*       6.6000000000E+03               0
GRID*               4615               03.0000000000E+024.9999988556E+01+
*       6.0000000000E+03               0
GRID*               4616               03.0000000000E+024.9999988556E+01+
*       5.4000000000E+03               0
GRID*               4617               03.0000000000E+024.9999988556E+01+
*       4.8000000000E+03               0
GRID*               4618               03.0000000000E+024.9999988556E+01+
*       4.2000000000E+03               0
GRID*               4619               03.0000000000E+024.9999988556E+01+
*       3.6000000000E+03               0
GRID*               4620               03.0000000000E+024.9999988556E+01+
*       3.0000000000E+03               0
GRID*               4621               03.0000000000E+024.9999988556E+01+
*       2.4000000000E+03               0
GRID*               4622               03.0000000000E+024.9999988556E+01+
*       1.8000000000E+03               0
GRID*               4623               01.2000000000E+034.9999988556E+01+
*       6.0000000000E+02               0
GRID*               4624               09.0000000000E+024.9999988556E+01+
*       3.0000000000E+02               0
GRID*               4625               03.0000000000E+024.9999988556E+01+
*       3.0000000000E+02               0
GRID*               4626               06.0000000000E+024.9999988556E+01+
*       6.0000000000E+02               0
GRID*               4627               0-3.000000000E+024.9999988556E+01+
*       3.0000000000E+02               0
GRID*               4628               0-1.904254532E-124.9999988556E+01+
*       6.0000000000E+02               0
GRID*               4629               0-9.000000000E+024.9999988556E+01+
*       3.0000000000E+02               0
GRID*               4630               0-6.000000000E+024.9999988556E+01+
*       6.0000000000E+02               0
GRID*               4631               0-1.200000000E+034.9999988556E+01+
*       6.0000000000E+02               0
GRID*               4632               0-1.200000000E+034.9999988556E+01+
*       1.2000000000E+03               0
GRID*               4633               0-9.000000000E+024.9999988556E+01+
*       9.0000000000E+02               0
GRID*               4634               0-1.200000000E+034.9999988556E+01+
*       1.8000000000E+03               0
GRID*               4635               0-9.000000000E+024.9999988556E+01+
*       1.5000000000E+03               0
GRID*               4636               0-1.200000000E+034.9999988556E+01+
*       2.4000000000E+03               0
GRID*               4637               0-9.000000000E+024.9999988556E+01+
*       2.1000000000E+03               0
GRID*               4638               0-1.200000000E+034.9999988556E+01+
*       3.0000000000E+03               0
GRID*               4639               0-9.000000000E+024.9999988556E+01+
*       2.7000000000E+03               0
GRID*               4640               0-1.200000000E+034.9999988556E+01+
*       3.6000000000E+03               0
GRID*               4641               0-9.000000000E+024.9999988556E+01+
*       3.3000000000E+03               0
GRID*               4642               0-1.200000000E+034.9999988556E+01+
*       4.2000000000E+03               0
GRID*               4643               0-9.000000000E+024.9999988556E+01+
*       3.9000000000E+03               0
GRID*               4644               0-1.200000000E+034.9999988556E+01+
*       4.8000000000E+03               0
GRID*               4645               0-9.000000000E+024.9999988556E+01+
*       4.5000000000E+03               0
GRID*               4646               0-1.200000000E+034.9999988556E+01+
*       5.4000000000E+03               0
GRID*               4647               0-9.000000000E+024.9999988556E+01+
*       5.1000000000E+03               0
GRID*               4648               0-1.200000000E+034.9999988556E+01+
*       6.0000000000E+03               0
GRID*               4649               0-9.000000000E+024.9999988556E+01+
*       5.7000000000E+03               0
GRID*               4650               0-1.200000000E+034.9999988556E+01+
*       6.6000000000E+03               0
GRID*               4651               0-9.000000000E+024.9999988556E+01+
*       6.3000000000E+03               0
GRID*               4652               0-1.200000000E+034.9999988556E+01+
*       7.2000000000E+03               0
GRID*               4653               0-9.000000000E+024.9999988556E+01+
*       6.9000000000E+03               0
GRID*               4654               0-1.200000000E+034.9999988556E+01+
*       7.8000000000E+03               0
GRID*               4655               0-9.000000000E+024.9999988556E+01+
*       7.5000000000E+03               0
GRID*               4656               0-1.200000000E+034.9999988556E+01+
*       8.4000000000E+03               0
GRID*               4657               0-9.000000000E+024.9999988556E+01+
*       8.1000000000E+03               0
GRID*               4658               0-1.200000000E+034.9999988556E+01+
*       9.0000000000E+03               0
GRID*               4659               0-9.000000000E+024.9999988556E+01+
*       8.7000000000E+03               0
GRID*               4660               0-1.200000000E+034.9999988556E+01+
*       9.6000002474E+03               0
GRID*               4661               0-9.000000000E+024.9999988556E+01+
*       9.3000002474E+03               0
GRID*               4662               0-1.200000000E+034.9999988556E+01+
*       1.0200000000E+04               0
GRID*               4663               0-9.000000000E+024.9999988556E+01+
*       9.9000002474E+03               0
GRID*               4664               0-1.200000000E+034.9999988556E+01+
*       1.0800000000E+04               0
GRID*               4665               0-9.000000000E+024.9999988556E+01+
*       1.0500000000E+04               0
GRID*               4666               0-1.200000000E+034.9999988556E+01+
*       1.1400000000E+04               0
GRID*               4667               0-9.000000000E+024.9999988556E+01+
*       1.1100000000E+04               0
GRID*               4668               0-1.200000000E+034.9999988556E+01+
*       1.2000000000E+04               0
GRID*               4669               0-9.000000000E+024.9999988556E+01+
*       1.1700000000E+04               0
GRID*               4670               0-1.200000000E+034.9999988556E+01+
*       1.2600000000E+04               0
GRID*               4671               0-9.000000000E+024.9999988556E+01+
*       1.2300000000E+04               0
GRID*               4672               0-1.200000000E+034.9999988556E+01+
*       1.3200000000E+04               0
GRID*               4673               0-9.000000000E+024.9999988556E+01+
*       1.2900000000E+04               0
GRID*               4674               0-1.200000000E+034.9999988556E+01+
*       1.3800000000E+04               0
GRID*               4675               0-9.000000000E+024.9999988556E+01+
*       1.3500000000E+04               0
GRID*               4676               0-1.200000000E+034.9999988556E+01+
*       1.4400000000E+04               0
GRID*               4677               0-9.000000000E+024.9999988556E+01+
*       1.4100000000E+04               0
GRID*               4678               0-1.200000000E+034.9999988556E+01+
*       1.5000000000E+04               0
GRID*               4679               0-9.000000000E+024.9999988556E+01+
*       1.4700000000E+04               0
GRID*               4680               0-1.200000000E+034.9999988556E+01+
*       1.5600000000E+04               0
GRID*               4681               0-9.000000000E+024.9999988556E+01+
*       1.5300000000E+04               0
GRID*               4682               0-1.200000000E+034.9999988556E+01+
*       1.6200000000E+04               0
GRID*               4683               0-9.000000000E+024.9999988556E+01+
*       1.5900000000E+04               0
GRID*               4684               0-1.200000000E+034.9999988556E+01+
*       1.6800000000E+04               0
GRID*               4685               0-9.000000000E+024.9999988556E+01+
*       1.6500000000E+04               0
GRID*               4686               0-1.200000000E+034.9999988556E+01+
*       1.7400000000E+04               0
GRID*               4687               0-9.000000000E+024.9999988556E+01+
*       1.7100000000E+04               0
GRID*               4688               0-1.200000000E+034.9999988556E+01+
*       1.8000000000E+04               0
GRID*               4689               0-9.000000000E+024.9999988556E+01+
*       1.7700000000E+04               0
GRID*               4690               0-1.200000000E+034.9999988556E+01+
*       1.8600000000E+04               0
GRID*               4691               0-9.000000000E+024.9999988556E+01+
*       1.8300000000E+04               0
GRID*               4692               0-1.200000000E+034.9999988556E+01+
*       1.9200000000E+04               0
GRID*               4693               0-9.000000000E+024.9999988556E+01+
*       1.8900000000E+04               0
GRID*               4694               0-1.200000000E+034.9999988556E+01+
*       1.9800000000E+04               0
GRID*               4695               0-9.000000000E+024.9999988556E+01+
*       1.9500000000E+04               0
GRID*               4696               0-1.200000000E+034.9999988556E+01+
*       2.0400000000E+04               0
GRID*               4697               0-9.000000000E+024.9999988556E+01+
*       2.0100000000E+04               0
GRID*               4698               0-1.200000000E+034.9999988556E+01+
*       2.1000000000E+04               0
GRID*               4699               0-9.000000000E+024.9999988556E+01+
*       2.0700000000E+04               0
GRID*               4700               0-1.200000000E+034.9999988556E+01+
*       2.1600000000E+04               0
GRID*               4701               0-9.000000000E+024.9999988556E+01+
*       2.1300000000E+04               0
GRID*               4702               0-1.200000000E+034.9999988556E+01+
*       2.2200000000E+04               0
GRID*               4703               0-9.000000000E+024.9999988556E+01+
*       2.1900000000E+04               0
GRID*               4704               0-1.200000000E+034.9999988556E+01+
*       2.2800000000E+04               0
GRID*               4705               0-9.000000000E+024.9999988556E+01+
*       2.2500000000E+04               0
GRID*               4706               0-1.200000000E+034.9999988556E+01+
*       2.3400000000E+04               0
GRID*               4707               0-9.000000000E+024.9999988556E+01+
*       2.3100000000E+04               0
GRID*               4708               0-1.200000000E+034.9999988556E+01+
*       2.4000000000E+04               0
GRID*               4709               0-9.000000000E+024.9999988556E+01+
*       2.3700000000E+04               0
GRID*               4710               0-1.200000000E+034.9999988556E+01+
*       2.4600000000E+04               0
GRID*               4711               0-9.000000000E+024.9999988556E+01+
*       2.4300000000E+04               0
GRID*               4712               0-1.200000000E+034.9999988556E+01+
*       2.5200000000E+04               0
GRID*               4713               0-9.000000000E+024.9999988556E+01+
*       2.4900000000E+04               0
GRID*               4714               0-1.200000000E+034.9999988556E+01+
*       2.5800000000E+04               0
GRID*               4715               0-9.000000000E+024.9999988556E+01+
*       2.5500000000E+04               0
GRID*               4716               0-1.200000000E+034.9999988556E+01+
*       2.6400000000E+04               0
GRID*               4717               0-9.000000000E+024.9999988556E+01+
*       2.6100000000E+04               0
GRID*               4718               0-1.200000000E+034.9999988556E+01+
*       2.7000000000E+04               0
GRID*               4719               0-9.000000000E+024.9999988556E+01+
*       2.6700000000E+04               0
GRID*               4720               0-1.200000000E+034.9999988556E+01+
*       2.7600000000E+04               0
GRID*               4721               0-9.000000000E+024.9999988556E+01+
*       2.7300000000E+04               0
GRID*               4722               0-1.200000000E+034.9999988556E+01+
*       2.8200000000E+04               0
GRID*               4723               0-9.000000000E+024.9999988556E+01+
*       2.7900000000E+04               0
GRID*               4724               0-1.200000000E+034.9999988556E+01+
*       2.8800000000E+04               0
GRID*               4725               0-9.000000000E+024.9999988556E+01+
*       2.8500000000E+04               0
GRID*               4726               0-1.200000000E+034.9999988556E+01+
*       2.9400000000E+04               0
GRID*               4727               0-9.000000000E+024.9999988556E+01+
*       2.9100000000E+04               0
GRID*               4728               0-1.200000000E+034.9999988556E+01+
*       3.0000000000E+04               0
GRID*               4729               0-9.000000000E+024.9999988556E+01+
*       2.9700000000E+04               0
GRID*               4730               0-1.200000000E+034.9999988556E+01+
*       3.0600000000E+04               0
GRID*               4731               0-9.000000000E+024.9999988556E+01+
*       3.0300000000E+04               0
GRID*               4732               0-1.200000000E+034.9999988556E+01+
*       3.1200000000E+04               0
GRID*               4733               0-9.000000000E+024.9999988556E+01+
*       3.0900000000E+04               0
GRID*               4734               0-1.200000000E+034.9999988556E+01+
*       3.1800000000E+04               0
GRID*               4735               0-9.000000000E+024.9999988556E+01+
*       3.1500000000E+04               0
GRID*               4736               0-1.200000000E+034.9999988556E+01+
*       3.2400000000E+04               0
GRID*               4737               0-9.000000000E+024.9999988556E+01+
*       3.2100000000E+04               0
GRID*               4738               0-1.200000000E+034.9999988556E+01+
*       3.3000000000E+04               0
GRID*               4739               0-9.000000000E+024.9999988556E+01+
*       3.2700000000E+04               0
GRID*               4740               0-1.200000062E+034.9999988556E+01+
*       3.3600000495E+04               0
GRID*               4741               0-9.000000618E+024.9999988556E+01+
*       3.3300000495E+04               0
GRID*               4742               0-1.200000000E+034.9999988556E+01+
*       3.4200000000E+04               0
GRID*               4743               0-9.000000618E+024.9999988556E+01+
*       3.3900000495E+04               0
GRID*               4744               0-1.200000000E+034.9999988556E+01+
*       3.4800000000E+04               0
GRID*               4745               0-9.000000000E+024.9999988556E+01+
*       3.4500000000E+04               0
GRID*               4746               0-1.200000000E+034.9999988556E+01+
*       3.5400000000E+04               0
GRID*               4747               0-9.000000000E+024.9999988556E+01+
*       3.5100000000E+04               0
GRID*               4748               0-9.000000000E+024.9999988556E+01+
*       3.5700000000E+04               0
GRID*               4749               0-3.000000000E+024.9999988556E+01+
*       3.5700000000E+04               0
GRID*               4750               0-6.000000000E+024.9999988556E+01+
*       3.5400000000E+04               0
GRID*               4751               03.0000000000E+024.9999988556E+01+
*       3.5700000000E+04               0
GRID*               4752               0-1.310951347E-124.9999988556E+01+
*       3.5400000000E+04               0
GRID*               4753               09.0000000000E+024.9999988556E+01+
*       3.5700000000E+04               0
GRID*               4754               06.0000000000E+024.9999988556E+01+
*       3.5400000000E+04               0
GRID*               4755               01.2000000000E+034.9999988556E+01+
*       3.5400000000E+04               0
GRID*               4756               01.2000000000E+034.9999988556E+01+
*       3.4800000000E+04               0
GRID*               4757               09.0000000000E+024.9999988556E+01+
*       3.5100000000E+04               0
GRID*               4758               01.2000000000E+034.9999988556E+01+
*       3.4200000000E+04               0
GRID*               4759               09.0000000000E+024.9999988556E+01+
*       3.4500000000E+04               0
GRID*               4760               01.2000000000E+034.9999988556E+01+
*       3.3600000000E+04               0
GRID*               4761               09.0000000000E+024.9999988556E+01+
*       3.3900000000E+04               0
GRID*               4762               01.2000000000E+034.9999988556E+01+
*       3.3000000000E+04               0
GRID*               4763               09.0000000000E+024.9999988556E+01+
*       3.3300000000E+04               0
GRID*               4764               01.2000000000E+034.9999988556E+01+
*       3.2400000000E+04               0
GRID*               4765               09.0000000000E+024.9999988556E+01+
*       3.2700000000E+04               0
GRID*               4766               01.2000000000E+034.9999988556E+01+
*       3.1800000000E+04               0
GRID*               4767               09.0000000000E+024.9999988556E+01+
*       3.2100000000E+04               0
GRID*               4768               01.2000000000E+034.9999988556E+01+
*       3.1200000000E+04               0
GRID*               4769               09.0000000000E+024.9999988556E+01+
*       3.1500000000E+04               0
GRID*               4770               01.2000000000E+034.9999988556E+01+
*       3.0600000000E+04               0
GRID*               4771               09.0000000000E+024.9999988556E+01+
*       3.0900000000E+04               0
GRID*               4772               01.2000000000E+034.9999988556E+01+
*       3.0000000000E+04               0
GRID*               4773               09.0000000000E+024.9999988556E+01+
*       3.0300000000E+04               0
GRID*               4774               01.2000000000E+034.9999988556E+01+
*       2.9400000000E+04               0
GRID*               4775               09.0000000000E+024.9999988556E+01+
*       2.9700000000E+04               0
GRID*               4776               01.2000000000E+034.9999988556E+01+
*       2.8800000000E+04               0
GRID*               4777               09.0000000000E+024.9999988556E+01+
*       2.9100000000E+04               0
GRID*               4778               01.2000000000E+034.9999988556E+01+
*       2.8200000000E+04               0
GRID*               4779               09.0000000000E+024.9999988556E+01+
*       2.8500000000E+04               0
GRID*               4780               01.2000000000E+034.9999988556E+01+
*       2.7600000000E+04               0
GRID*               4781               09.0000000000E+024.9999988556E+01+
*       2.7900000000E+04               0
GRID*               4782               01.2000000000E+034.9999988556E+01+
*       2.7000000000E+04               0
GRID*               4783               09.0000000000E+024.9999988556E+01+
*       2.7300000000E+04               0
GRID*               4784               01.2000000000E+034.9999988556E+01+
*       2.6400000000E+04               0
GRID*               4785               09.0000000000E+024.9999988556E+01+
*       2.6700000000E+04               0
GRID*               4786               01.2000000000E+034.9999988556E+01+
*       2.5800000000E+04               0
GRID*               4787               09.0000000000E+024.9999988556E+01+
*       2.6100000000E+04               0
GRID*               4788               01.2000000000E+034.9999988556E+01+
*       2.5200000000E+04               0
GRID*               4789               09.0000000000E+024.9999988556E+01+
*       2.5500000000E+04               0
GRID*               4790               01.2000000000E+034.9999988556E+01+
*       2.4600000000E+04               0
GRID*               4791               09.0000000000E+024.9999988556E+01+
*       2.4900000000E+04               0
GRID*               4792               01.2000000000E+034.9999988556E+01+
*       2.4000000000E+04               0
GRID*               4793               09.0000000000E+024.9999988556E+01+
*       2.4300000000E+04               0
GRID*               4794               01.2000000000E+034.9999988556E+01+
*       2.3400000000E+04               0
GRID*               4795               09.0000000000E+024.9999988556E+01+
*       2.3700000000E+04               0
GRID*               4796               01.2000000000E+034.9999988556E+01+
*       2.2800000000E+04               0
GRID*               4797               09.0000000000E+024.9999988556E+01+
*       2.3100000000E+04               0
GRID*               4798               01.2000000000E+034.9999988556E+01+
*       2.2200000000E+04               0
GRID*               4799               09.0000000000E+024.9999988556E+01+
*       2.2500000000E+04               0
GRID*               4800               01.2000000000E+034.9999988556E+01+
*       2.1600000000E+04               0
GRID*               4801               09.0000000000E+024.9999988556E+01+
*       2.1900000000E+04               0
GRID*               4802               01.2000000000E+034.9999988556E+01+
*       2.1000000000E+04               0
GRID*               4803               09.0000000000E+024.9999988556E+01+
*       2.1300000000E+04               0
GRID*               4804               01.2000000000E+034.9999988556E+01+
*       2.0400000000E+04               0
GRID*               4805               09.0000000000E+024.9999988556E+01+
*       2.0700000000E+04               0
GRID*               4806               01.2000000000E+034.9999988556E+01+
*       1.9800000000E+04               0
GRID*               4807               09.0000000000E+024.9999988556E+01+
*       2.0100000000E+04               0
GRID*               4808               01.2000000000E+034.9999988556E+01+
*       1.9200000000E+04               0
GRID*               4809               09.0000000000E+024.9999988556E+01+
*       1.9500000000E+04               0
GRID*               4810               01.2000000000E+034.9999988556E+01+
*       1.8600000000E+04               0
GRID*               4811               09.0000000000E+024.9999988556E+01+
*       1.8900000000E+04               0
GRID*               4812               01.2000000000E+034.9999988556E+01+
*       1.8000000000E+04               0
GRID*               4813               09.0000000000E+024.9999988556E+01+
*       1.8300000000E+04               0
GRID*               4814               01.2000000000E+034.9999988556E+01+
*       1.7400000000E+04               0
GRID*               4815               09.0000000000E+024.9999988556E+01+
*       1.7700000000E+04               0
GRID*               4816               01.2000000000E+034.9999988556E+01+
*       1.6800000000E+04               0
GRID*               4817               09.0000000000E+024.9999988556E+01+
*       1.7100000000E+04               0
GRID*               4818               01.2000000000E+034.9999988556E+01+
*       1.6200000000E+04               0
GRID*               4819               09.0000000000E+024.9999988556E+01+
*       1.6500000000E+04               0
GRID*               4820               01.2000000000E+034.9999988556E+01+
*       1.5600000000E+04               0
GRID*               4821               09.0000000000E+024.9999988556E+01+
*       1.5900000000E+04               0
GRID*               4822               01.2000000000E+034.9999988556E+01+
*       1.5000000000E+04               0
GRID*               4823               09.0000000000E+024.9999988556E+01+
*       1.5300000000E+04               0
GRID*               4824               01.2000000000E+034.9999988556E+01+
*       1.4400000495E+04               0
GRID*               4825               09.0000000000E+024.9999988556E+01+
*       1.4700000495E+04               0
GRID*               4826               01.2000000000E+034.9999988556E+01+
*       1.3800000000E+04               0
GRID*               4827               09.0000000000E+024.9999988556E+01+
*       1.4100000495E+04               0
GRID*               4828               01.2000000000E+034.9999988556E+01+
*       1.3200000000E+04               0
GRID*               4829               09.0000000000E+024.9999988556E+01+
*       1.3500000000E+04               0
GRID*               4830               01.2000000000E+034.9999988556E+01+
*       1.2600000000E+04               0
GRID*               4831               09.0000000000E+024.9999988556E+01+
*       1.2900000000E+04               0
GRID*               4832               01.2000000000E+034.9999988556E+01+
*       1.2000000000E+04               0
GRID*               4833               09.0000000000E+024.9999988556E+01+
*       1.2300000000E+04               0
GRID*               4834               01.2000000000E+034.9999988556E+01+
*       1.1400000000E+04               0
GRID*               4835               09.0000000000E+024.9999988556E+01+
*       1.1700000000E+04               0
GRID*               4836               01.2000000000E+034.9999988556E+01+
*       1.0800000000E+04               0
GRID*               4837               09.0000000000E+024.9999988556E+01+
*       1.1100000000E+04               0
GRID*               4838               01.2000000000E+034.9999988556E+01+
*       1.0200000000E+04               0
GRID*               4839               09.0000000000E+024.9999988556E+01+
*       1.0500000000E+04               0
GRID*               4840               01.2000000000E+034.9999988556E+01+
*       9.6000000000E+03               0
GRID*               4841               09.0000000000E+024.9999988556E+01+
*       9.9000000000E+03               0
GRID*               4842               01.2000000000E+034.9999988556E+01+
*       9.0000000000E+03               0
GRID*               4843               09.0000000000E+024.9999988556E+01+
*       9.3000000000E+03               0
GRID*               4844               01.2000000000E+034.9999988556E+01+
*       8.4000000000E+03               0
GRID*               4845               09.0000000000E+024.9999988556E+01+
*       8.7000000000E+03               0
GRID*               4846               01.2000000000E+034.9999988556E+01+
*       7.8000000000E+03               0
GRID*               4847               09.0000000000E+024.9999988556E+01+
*       8.1000000000E+03               0
GRID*               4848               01.2000000000E+034.9999988556E+01+
*       7.2000000000E+03               0
GRID*               4849               09.0000000000E+024.9999988556E+01+
*       7.5000000000E+03               0
GRID*               4850               01.2000000000E+034.9999988556E+01+
*       6.6000000000E+03               0
GRID*               4851               09.0000000000E+024.9999988556E+01+
*       6.9000000000E+03               0
GRID*               4852               01.2000000000E+034.9999988556E+01+
*       6.0000000000E+03               0
GRID*               4853               09.0000000000E+024.9999988556E+01+
*       6.3000000000E+03               0
GRID*               4854               01.2000000000E+034.9999988556E+01+
*       5.4000000000E+03               0
GRID*               4855               09.0000000000E+024.9999988556E+01+
*       5.7000000000E+03               0
GRID*               4856               01.2000000000E+034.9999988556E+01+
*       4.8000000000E+03               0
GRID*               4857               09.0000000000E+024.9999988556E+01+
*       5.1000000000E+03               0
GRID*               4858               01.2000000000E+034.9999988556E+01+
*       4.2000000000E+03               0
GRID*               4859               09.0000000000E+024.9999988556E+01+
*       4.5000000000E+03               0
GRID*               4860               01.2000000000E+034.9999988556E+01+
*       3.6000000000E+03               0
GRID*               4861               09.0000000000E+024.9999988556E+01+
*       3.9000000000E+03               0
GRID*               4862               01.2000000000E+034.9999988556E+01+
*       3.0000000000E+03               0
GRID*               4863               09.0000000000E+024.9999988556E+01+
*       3.3000000000E+03               0
GRID*               4864               01.2000000000E+034.9999988556E+01+
*       2.4000002474E+03               0
GRID*               4865               09.0000000000E+024.9999988556E+01+
*       2.7000002474E+03               0
GRID*               4866               01.2000000000E+034.9999988556E+01+
*       1.8000000000E+03               0
GRID*               4867               09.0000000000E+024.9999988556E+01+
*       2.1000002474E+03               0
GRID*               4868               01.2000000000E+034.9999988556E+01+
*       1.2000000000E+03               0
GRID*               4869               09.0000000000E+024.9999988556E+01+
*       1.5000000000E+03               0
GRID*               4870               09.0000000000E+024.9999988556E+01+
*       9.0000000000E+02               0
GRID*               4871               06.0000000000E+024.9999988556E+01+
*       1.2000000000E+03               0
GRID*               4872               03.0000000000E+024.9999988556E+01+
*       9.0000000000E+02               0
GRID*               4873               0-3.000000000E+024.9999988556E+01+
*       9.0000000000E+02               0
GRID*               4874               02.0001778012E-124.9999988556E+01+
*       1.2000000000E+03               0
GRID*               4875               0-6.000000000E+024.9999988556E+01+
*       1.2000000000E+03               0
GRID*               4876               0-6.000000000E+024.9999988556E+01+
*       1.8000000000E+03               0
GRID*               4877               0-3.000000000E+024.9999988556E+01+
*       1.5000000000E+03               0
GRID*               4878               0-6.000000000E+024.9999988556E+01+
*       2.4000000000E+03               0
GRID*               4879               0-3.000000000E+024.9999988556E+01+
*       2.1000000000E+03               0
GRID*               4880               0-6.000000000E+024.9999988556E+01+
*       3.0000000000E+03               0
GRID*               4881               0-3.000000000E+024.9999988556E+01+
*       2.7000000000E+03               0
GRID*               4882               0-6.000000000E+024.9999988556E+01+
*       3.6000000000E+03               0
GRID*               4883               0-3.000000000E+024.9999988556E+01+
*       3.3000000000E+03               0
GRID*               4884               0-6.000000000E+024.9999988556E+01+
*       4.2000000000E+03               0
GRID*               4885               0-3.000000000E+024.9999988556E+01+
*       3.9000000000E+03               0
GRID*               4886               0-6.000000000E+024.9999988556E+01+
*       4.8000000000E+03               0
GRID*               4887               0-3.000000000E+024.9999988556E+01+
*       4.5000000000E+03               0
GRID*               4888               0-6.000000000E+024.9999988556E+01+
*       5.4000000000E+03               0
GRID*               4889               0-3.000000000E+024.9999988556E+01+
*       5.1000000000E+03               0
GRID*               4890               0-6.000000000E+024.9999988556E+01+
*       6.0000000000E+03               0
GRID*               4891               0-3.000000000E+024.9999988556E+01+
*       5.7000000000E+03               0
GRID*               4892               0-6.000000000E+024.9999988556E+01+
*       6.6000000000E+03               0
GRID*               4893               0-3.000000000E+024.9999988556E+01+
*       6.3000000000E+03               0
GRID*               4894               0-6.000000000E+024.9999988556E+01+
*       7.2000003030E+03               0
GRID*               4895               0-3.000000000E+024.9999988556E+01+
*       6.9000003030E+03               0
GRID*               4896               0-6.000000000E+024.9999988556E+01+
*       7.8000000000E+03               0
GRID*               4897               0-3.000000000E+024.9999988556E+01+
*       7.5000003030E+03               0
GRID*               4898               0-6.000000000E+024.9999988556E+01+
*       8.4000000000E+03               0
GRID*               4899               0-3.000000000E+024.9999988556E+01+
*       8.1000000000E+03               0
GRID*               4900               0-6.000000000E+024.9999988556E+01+
*       9.0000000000E+03               0
GRID*               4901               0-3.000000000E+024.9999988556E+01+
*       8.7000000000E+03               0
GRID*               4902               0-6.000000000E+024.9999988556E+01+
*       9.6000002474E+03               0
GRID*               4903               0-3.000000000E+024.9999988556E+01+
*       9.3000000000E+03               0
GRID*               4904               0-6.000000000E+024.9999988556E+01+
*       1.0200000000E+04               0
GRID*               4905               0-3.000000000E+024.9999988556E+01+
*       9.9000000000E+03               0
GRID*               4906               0-6.000000000E+024.9999988556E+01+
*       1.0800000000E+04               0
GRID*               4907               0-3.000000000E+024.9999988556E+01+
*       1.0500000000E+04               0
GRID*               4908               0-6.000000000E+024.9999988556E+01+
*       1.1400000000E+04               0
GRID*               4909               0-3.000000000E+024.9999988556E+01+
*       1.1100000000E+04               0
GRID*               4910               0-6.000000000E+024.9999988556E+01+
*       1.2000000000E+04               0
GRID*               4911               0-3.000000000E+024.9999988556E+01+
*       1.1700000000E+04               0
GRID*               4912               0-6.000000000E+024.9999988556E+01+
*       1.2600000000E+04               0
GRID*               4913               0-3.000000000E+024.9999988556E+01+
*       1.2300000000E+04               0
GRID*               4914               0-6.000000000E+024.9999988556E+01+
*       1.3200000000E+04               0
GRID*               4915               0-3.000000000E+024.9999988556E+01+
*       1.2900000000E+04               0
GRID*               4916               0-6.000000000E+024.9999988556E+01+
*       1.3800000000E+04               0
GRID*               4917               0-3.000000000E+024.9999988556E+01+
*       1.3500000000E+04               0
GRID*               4918               0-6.000000000E+024.9999988556E+01+
*       1.4400000000E+04               0
GRID*               4919               0-3.000000000E+024.9999988556E+01+
*       1.4100000000E+04               0
GRID*               4920               0-6.000000000E+024.9999988556E+01+
*       1.5000000000E+04               0
GRID*               4921               0-3.000000000E+024.9999988556E+01+
*       1.4700000000E+04               0
GRID*               4922               0-6.000000000E+024.9999988556E+01+
*       1.5600000000E+04               0
GRID*               4923               0-3.000000000E+024.9999988556E+01+
*       1.5300000000E+04               0
GRID*               4924               0-6.000000000E+024.9999988556E+01+
*       1.6200000000E+04               0
GRID*               4925               0-3.000000000E+024.9999988556E+01+
*       1.5900000000E+04               0
GRID*               4926               0-6.000000000E+024.9999988556E+01+
*       1.6800000000E+04               0
GRID*               4927               0-3.000000000E+024.9999988556E+01+
*       1.6500000000E+04               0
GRID*               4928               0-6.000000000E+024.9999988556E+01+
*       1.7400000000E+04               0
GRID*               4929               0-3.000000000E+024.9999988556E+01+
*       1.7100000000E+04               0
GRID*               4930               0-6.000000000E+024.9999988556E+01+
*       1.8000000000E+04               0
GRID*               4931               0-3.000000000E+024.9999988556E+01+
*       1.7700000000E+04               0
GRID*               4932               0-6.000000000E+024.9999988556E+01+
*       1.8600000000E+04               0
GRID*               4933               0-3.000000000E+024.9999988556E+01+
*       1.8300000000E+04               0
GRID*               4934               0-6.000000000E+024.9999988556E+01+
*       1.9200000606E+04               0
GRID*               4935               0-3.000000000E+024.9999988556E+01+
*       1.8900000606E+04               0
GRID*               4936               0-6.000000000E+024.9999988556E+01+
*       1.9800000000E+04               0
GRID*               4937               0-3.000000000E+024.9999988556E+01+
*       1.9500000606E+04               0
GRID*               4938               0-6.000000000E+024.9999988556E+01+
*       2.0400000000E+04               0
GRID*               4939               0-3.000000000E+024.9999988556E+01+
*       2.0100000000E+04               0
GRID*               4940               0-6.000000000E+024.9999988556E+01+
*       2.1000000000E+04               0
GRID*               4941               0-3.000000000E+024.9999988556E+01+
*       2.0700000000E+04               0
GRID*               4942               0-6.000000000E+024.9999988556E+01+
*       2.1600000000E+04               0
GRID*               4943               0-3.000000000E+024.9999988556E+01+
*       2.1300000000E+04               0
GRID*               4944               0-6.000000000E+024.9999988556E+01+
*       2.2200000000E+04               0
GRID*               4945               0-3.000000000E+024.9999988556E+01+
*       2.1900000000E+04               0
GRID*               4946               0-6.000000000E+024.9999988556E+01+
*       2.2800000000E+04               0
GRID*               4947               0-3.000000000E+024.9999988556E+01+
*       2.2500000000E+04               0
GRID*               4948               0-6.000000000E+024.9999988556E+01+
*       2.3400000000E+04               0
GRID*               4949               0-3.000000000E+024.9999988556E+01+
*       2.3100000000E+04               0
GRID*               4950               0-6.000000000E+024.9999988556E+01+
*       2.4000000000E+04               0
GRID*               4951               0-3.000000000E+024.9999988556E+01+
*       2.3700000000E+04               0
GRID*               4952               0-6.000000000E+024.9999988556E+01+
*       2.4600000000E+04               0
GRID*               4953               0-3.000000000E+024.9999988556E+01+
*       2.4300000000E+04               0
GRID*               4954               0-6.000000000E+024.9999988556E+01+
*       2.5200000000E+04               0
GRID*               4955               0-3.000000000E+024.9999988556E+01+
*       2.4900000000E+04               0
GRID*               4956               0-6.000000000E+024.9999988556E+01+
*       2.5800000000E+04               0
GRID*               4957               0-3.000000000E+024.9999988556E+01+
*       2.5500000000E+04               0
GRID*               4958               0-6.000000000E+024.9999988556E+01+
*       2.6400000000E+04               0
GRID*               4959               0-3.000000000E+024.9999988556E+01+
*       2.6100000000E+04               0
GRID*               4960               0-6.000000000E+024.9999988556E+01+
*       2.7000000000E+04               0
GRID*               4961               0-3.000000000E+024.9999988556E+01+
*       2.6700000000E+04               0
GRID*               4962               0-6.000000000E+024.9999988556E+01+
*       2.7600000000E+04               0
GRID*               4963               0-3.000000000E+024.9999988556E+01+
*       2.7300000000E+04               0
GRID*               4964               0-6.000000000E+024.9999988556E+01+
*       2.8200000000E+04               0
GRID*               4965               0-3.000000000E+024.9999988556E+01+
*       2.7900000000E+04               0
GRID*               4966               0-6.000000000E+024.9999988556E+01+
*       2.8800000000E+04               0
GRID*               4967               0-3.000000000E+024.9999988556E+01+
*       2.8500000000E+04               0
GRID*               4968               0-6.000000000E+024.9999988556E+01+
*       2.9400000000E+04               0
GRID*               4969               0-3.000000000E+024.9999988556E+01+
*       2.9100000000E+04               0
GRID*               4970               0-6.000000000E+024.9999988556E+01+
*       3.0000000000E+04               0
GRID*               4971               0-3.000000000E+024.9999988556E+01+
*       2.9700000000E+04               0
GRID*               4972               0-6.000000000E+024.9999988556E+01+
*       3.0600000000E+04               0
GRID*               4973               0-3.000000000E+024.9999988556E+01+
*       3.0300000000E+04               0
GRID*               4974               0-6.000000000E+024.9999988556E+01+
*       3.1200000000E+04               0
GRID*               4975               0-3.000000000E+024.9999988556E+01+
*       3.0900000000E+04               0
GRID*               4976               0-6.000000000E+024.9999988556E+01+
*       3.1800000000E+04               0
GRID*               4977               0-3.000000000E+024.9999988556E+01+
*       3.1500000000E+04               0
GRID*               4978               0-6.000000000E+024.9999988556E+01+
*       3.2400000000E+04               0
GRID*               4979               0-3.000000000E+024.9999988556E+01+
*       3.2100000000E+04               0
GRID*               4980               0-6.000000000E+024.9999988556E+01+
*       3.3000000000E+04               0
GRID*               4981               0-3.000000000E+024.9999988556E+01+
*       3.2700000000E+04               0
GRID*               4982               0-6.000000618E+024.9999988556E+01+
*       3.3600000495E+04               0
GRID*               4983               0-3.000000000E+024.9999988556E+01+
*       3.3300000000E+04               0
GRID*               4984               0-6.000000000E+024.9999988556E+01+
*       3.4200000000E+04               0
GRID*               4985               0-3.000000000E+024.9999988556E+01+
*       3.3900000000E+04               0
GRID*               4986               0-6.000000000E+024.9999988556E+01+
*       3.4800000000E+04               0
GRID*               4987               0-3.000000000E+024.9999988556E+01+
*       3.4500000000E+04               0
GRID*               4988               0-3.000000000E+024.9999988556E+01+
*       3.5100000000E+04               0
GRID*               4989               03.0000000000E+024.9999988556E+01+
*       3.5100000000E+04               0
GRID*               4990               0-1.339373057E-124.9999988556E+01+
*       3.4800000000E+04               0
GRID*               4991               06.0000000000E+024.9999988556E+01+
*       3.4800000000E+04               0
GRID*               4992               06.0000000000E+024.9999988556E+01+
*       3.4200000000E+04               0
GRID*               4993               03.0000000000E+024.9999988556E+01+
*       3.4500000000E+04               0
GRID*               4994               06.0000000000E+024.9999988556E+01+
*       3.3600000000E+04               0
GRID*               4995               03.0000000000E+024.9999988556E+01+
*       3.3900000000E+04               0
GRID*               4996               06.0000000000E+024.9999988556E+01+
*       3.3000000000E+04               0
GRID*               4997               03.0000000000E+024.9999988556E+01+
*       3.3300000000E+04               0
GRID*               4998               06.0000000000E+024.9999988556E+01+
*       3.2400000000E+04               0
GRID*               4999               03.0000000000E+024.9999988556E+01+
*       3.2700000000E+04               0
GRID*               5000               06.0000000000E+024.9999988556E+01+
*       3.1800000000E+04               0
GRID*               5001               03.0000000000E+024.9999988556E+01+
*       3.2100000000E+04               0
GRID*               5002               06.0000000000E+024.9999988556E+01+
*       3.1200000000E+04               0
GRID*               5003               03.0000000000E+024.9999988556E+01+
*       3.1500000000E+04               0
GRID*               5004               06.0000000000E+024.9999988556E+01+
*       3.0600000000E+04               0
GRID*               5005               03.0000000000E+024.9999988556E+01+
*       3.0900000000E+04               0
GRID*               5006               06.0000000000E+024.9999988556E+01+
*       3.0000000000E+04               0
GRID*               5007               03.0000000000E+024.9999988556E+01+
*       3.0300000000E+04               0
GRID*               5008               06.0000000000E+024.9999988556E+01+
*       2.9400000000E+04               0
GRID*               5009               03.0000000000E+024.9999988556E+01+
*       2.9700000000E+04               0
GRID*               5010               05.9999992425E+024.9999988556E+01+
*       2.8800000606E+04               0
GRID*               5011               02.9999992425E+024.9999988556E+01+
*       2.9100000606E+04               0
GRID*               5012               06.0000000000E+024.9999988556E+01+
*       2.8200000000E+04               0
GRID*               5013               02.9999992425E+024.9999988556E+01+
*       2.8500000606E+04               0
GRID*               5014               06.0000000000E+024.9999988556E+01+
*       2.7600000000E+04               0
GRID*               5015               03.0000000000E+024.9999988556E+01+
*       2.7900000000E+04               0
GRID*               5016               06.0000000000E+024.9999988556E+01+
*       2.7000000000E+04               0
GRID*               5017               03.0000000000E+024.9999988556E+01+
*       2.7300000000E+04               0
GRID*               5018               06.0000000000E+024.9999988556E+01+
*       2.6400000000E+04               0
GRID*               5019               03.0000000000E+024.9999988556E+01+
*       2.6700000000E+04               0
GRID*               5020               06.0000000000E+024.9999988556E+01+
*       2.5800000000E+04               0
GRID*               5021               03.0000000000E+024.9999988556E+01+
*       2.6100000000E+04               0
GRID*               5022               06.0000000000E+024.9999988556E+01+
*       2.5200000000E+04               0
GRID*               5023               03.0000000000E+024.9999988556E+01+
*       2.5500000000E+04               0
GRID*               5024               06.0000000000E+024.9999988556E+01+
*       2.4600000000E+04               0
GRID*               5025               03.0000000000E+024.9999988556E+01+
*       2.4900000000E+04               0
GRID*               5026               06.0000000000E+024.9999988556E+01+
*       2.4000000000E+04               0
GRID*               5027               03.0000000000E+024.9999988556E+01+
*       2.4300000000E+04               0
GRID*               5028               06.0000000000E+024.9999988556E+01+
*       2.3400000000E+04               0
GRID*               5029               03.0000000000E+024.9999988556E+01+
*       2.3700000000E+04               0
GRID*               5030               06.0000000000E+024.9999988556E+01+
*       2.2800000000E+04               0
GRID*               5031               03.0000000000E+024.9999988556E+01+
*       2.3100000000E+04               0
GRID*               5032               06.0000000000E+024.9999988556E+01+
*       2.2200000000E+04               0
GRID*               5033               03.0000000000E+024.9999988556E+01+
*       2.2500000000E+04               0
GRID*               5034               06.0000000000E+024.9999988556E+01+
*       2.1600000000E+04               0
GRID*               5035               03.0000000000E+024.9999988556E+01+
*       2.1900000000E+04               0
GRID*               5036               06.0000000000E+024.9999988556E+01+
*       2.1000000000E+04               0
GRID*               5037               03.0000000000E+024.9999988556E+01+
*       2.1300000000E+04               0
GRID*               5038               06.0000000000E+024.9999988556E+01+
*       2.0400000000E+04               0
GRID*               5039               03.0000000000E+024.9999988556E+01+
*       2.0700000000E+04               0
GRID*               5040               06.0000000000E+024.9999988556E+01+
*       1.9800000000E+04               0
GRID*               5041               03.0000000000E+024.9999988556E+01+
*       2.0100000000E+04               0
GRID*               5042               06.0000000000E+024.9999988556E+01+
*       1.9200000000E+04               0
GRID*               5043               03.0000000000E+024.9999988556E+01+
*       1.9500000000E+04               0
GRID*               5044               06.0000000000E+024.9999988556E+01+
*       1.8600000000E+04               0
GRID*               5045               03.0000000000E+024.9999988556E+01+
*       1.8900000000E+04               0
GRID*               5046               06.0000000000E+024.9999988556E+01+
*       1.8000000000E+04               0
GRID*               5047               03.0000000000E+024.9999988556E+01+
*       1.8300000000E+04               0
GRID*               5048               06.0000000000E+024.9999988556E+01+
*       1.7400000000E+04               0
GRID*               5049               03.0000000000E+024.9999988556E+01+
*       1.7700000000E+04               0
GRID*               5050               06.0000000000E+024.9999988556E+01+
*       1.6800000000E+04               0
GRID*               5051               03.0000000000E+024.9999988556E+01+
*       1.7100000000E+04               0
GRID*               5052               06.0000000000E+024.9999988556E+01+
*       1.6200000000E+04               0
GRID*               5053               03.0000000000E+024.9999988556E+01+
*       1.6500000000E+04               0
GRID*               5054               06.0000000000E+024.9999988556E+01+
*       1.5600000000E+04               0
GRID*               5055               03.0000000000E+024.9999988556E+01+
*       1.5900000000E+04               0
GRID*               5056               06.0000000000E+024.9999988556E+01+
*       1.5000000000E+04               0
GRID*               5057               03.0000000000E+024.9999988556E+01+
*       1.5300000000E+04               0
GRID*               5058               06.0000000000E+024.9999988556E+01+
*       1.4400000495E+04               0
GRID*               5059               03.0000000000E+024.9999988556E+01+
*       1.4700000000E+04               0
GRID*               5060               06.0000000000E+024.9999988556E+01+
*       1.3800000000E+04               0
GRID*               5061               03.0000000000E+024.9999988556E+01+
*       1.4100000000E+04               0
GRID*               5062               06.0000000000E+024.9999988556E+01+
*       1.3200000000E+04               0
GRID*               5063               03.0000000000E+024.9999988556E+01+
*       1.3500000000E+04               0
GRID*               5064               06.0000000000E+024.9999988556E+01+
*       1.2600000000E+04               0
GRID*               5065               03.0000000000E+024.9999988556E+01+
*       1.2900000000E+04               0
GRID*               5066               06.0000000000E+024.9999988556E+01+
*       1.2000000000E+04               0
GRID*               5067               03.0000000000E+024.9999988556E+01+
*       1.2300000000E+04               0
GRID*               5068               06.0000000000E+024.9999988556E+01+
*       1.1400000000E+04               0
GRID*               5069               03.0000000000E+024.9999988556E+01+
*       1.1700000000E+04               0
GRID*               5070               06.0000000000E+024.9999988556E+01+
*       1.0800000000E+04               0
GRID*               5071               03.0000000000E+024.9999988556E+01+
*       1.1100000000E+04               0
GRID*               5072               06.0000000000E+024.9999988556E+01+
*       1.0200000000E+04               0
GRID*               5073               03.0000000000E+024.9999988556E+01+
*       1.0500000000E+04               0
GRID*               5074               06.0000000000E+024.9999988556E+01+
*       9.6000000000E+03               0
GRID*               5075               03.0000000000E+024.9999988556E+01+
*       9.9000000000E+03               0
GRID*               5076               06.0000000000E+024.9999988556E+01+
*       9.0000000000E+03               0
GRID*               5077               03.0000000000E+024.9999988556E+01+
*       9.3000000000E+03               0
GRID*               5078               06.0000000000E+024.9999988556E+01+
*       8.4000000000E+03               0
GRID*               5079               03.0000000000E+024.9999988556E+01+
*       8.7000000000E+03               0
GRID*               5080               06.0000000000E+024.9999988556E+01+
*       7.8000000000E+03               0
GRID*               5081               03.0000000000E+024.9999988556E+01+
*       8.1000000000E+03               0
GRID*               5082               06.0000000000E+024.9999988556E+01+
*       7.2000000000E+03               0
GRID*               5083               03.0000000000E+024.9999988556E+01+
*       7.5000000000E+03               0
GRID*               5084               06.0000000000E+024.9999988556E+01+
*       6.6000000000E+03               0
GRID*               5085               03.0000000000E+024.9999988556E+01+
*       6.9000000000E+03               0
GRID*               5086               06.0000000000E+024.9999988556E+01+
*       6.0000000000E+03               0
GRID*               5087               03.0000000000E+024.9999988556E+01+
*       6.3000000000E+03               0
GRID*               5088               06.0000000000E+024.9999988556E+01+
*       5.4000000000E+03               0
GRID*               5089               03.0000000000E+024.9999988556E+01+
*       5.7000000000E+03               0
GRID*               5090               06.0000000000E+024.9999988556E+01+
*       4.8000000000E+03               0
GRID*               5091               03.0000000000E+024.9999988556E+01+
*       5.1000000000E+03               0
GRID*               5092               06.0000000000E+024.9999988556E+01+
*       4.2000000000E+03               0
GRID*               5093               03.0000000000E+024.9999988556E+01+
*       4.5000000000E+03               0
GRID*               5094               06.0000000000E+024.9999988556E+01+
*       3.6000000000E+03               0
GRID*               5095               03.0000000000E+024.9999988556E+01+
*       3.9000000000E+03               0
GRID*               5096               06.0000000000E+024.9999988556E+01+
*       3.0000000000E+03               0
GRID*               5097               03.0000000000E+024.9999988556E+01+
*       3.3000000000E+03               0
GRID*               5098               06.0000000000E+024.9999988556E+01+
*       2.4000002474E+03               0
GRID*               5099               03.0000000000E+024.9999988556E+01+
*       2.7000000000E+03               0
GRID*               5100               06.0000000000E+024.9999988556E+01+
*       1.8000000000E+03               0
GRID*               5101               03.0000000000E+024.9999988556E+01+
*       2.1000000000E+03               0
GRID*               5102               03.0000000000E+024.9999988556E+01+
*       1.5000000000E+03               0
GRID*               5103               0-3.588240816E-124.9999988556E+01+
*       3.4200000000E+04               0
GRID*               5104               0-1.509903313E-124.9999988556E+01+
*       3.3000000000E+04               0
GRID*               5105               0-4.057199021E-124.9999988556E+01+
*       3.3600000000E+04               0
GRID*               5106               0-1.918198933E-114.9999988556E+01+
*       3.0600000000E+04               0
GRID*               5107               0-1.216804435E-124.9999988556E+01+
*       3.1200000000E+04               0
GRID*               5108               0-3.890221478E-134.9999988556E+01+
*       3.1800000000E+04               0
GRID*               5109               0-1.456612608E-124.9999988556E+01+
*       3.2400000000E+04               0
GRID*               5110               01.8438583993E-124.9999988556E+01+
*       2.6400000000E+04               0
GRID*               5111               0-7.048583939E-124.9999988556E+01+
*       2.7000000000E+04               0
GRID*               5112               0-2.551558964E-114.9999988556E+01+
*       2.8200000000E+04               0
GRID*               5113               0-9.634959497E-124.9999988556E+01+
*       2.7600000000E+04               0
GRID*               5114               01.2690179574E-114.9999988556E+01+
*       3.0000000000E+04               0
GRID*               5115               0-7.752687381E-124.9999988556E+01+
*       2.9400000000E+04               0
GRID*               5116               0-7.574570890E-054.9999988556E+01+
*       2.8800000606E+04               0
GRID*               5117               0-9.947598301E-144.9999988556E+01+
*       1.9800000000E+04               0
GRID*               5118               0-6.403766406E-134.9999988556E+01+
*       1.9200000606E+04               0
GRID*               5119               0-6.663412933E-124.9999988556E+01+
*       1.8000000000E+04               0
GRID*               5120               02.1447066345E-114.9999988556E+01+
*       1.8600000000E+04               0
GRID*               5121               00.0000000000E+004.9999988556E+01+
*       2.2200000000E+04               0
GRID*               5122               0-2.756905815E-124.9999988556E+01+
*       2.1600000000E+04               0
GRID*               5123               0-1.993072374E-124.9999988556E+01+
*       2.1000000000E+04               0
GRID*               5124               0-1.172395514E-124.9999988556E+01+
*       2.0400000000E+04               0
GRID*               5125               0-1.261213356E-124.9999988556E+01+
*       2.2800000000E+04               0
GRID*               5126               04.1711079035E-134.9999988556E+01+
*       2.4000000000E+04               0
GRID*               5127               0-2.479794148E-124.9999988556E+01+
*       2.3400000000E+04               0
GRID*               5128               0-8.952838471E-134.9999988556E+01+
*       2.5800000000E+04               0
GRID*               5129               0-3.193889597E-124.9999988556E+01+
*       2.5200000000E+04               0
GRID*               5130               0-1.044497822E-124.9999988556E+01+
*       2.4600000000E+04               0
GRID*               5131               07.6170181273E-124.9999988556E+01+
*       3.6000000000E+03               0
GRID*               5132               01.2086331935E-114.9999988556E+01+
*       4.2000000000E+03               0
GRID*               5133               0-5.804690062E-124.9999988556E+01+
*       5.4000000000E+03               0
GRID*               5134               01.4696688311E-114.9999988556E+01+
*       4.8000000000E+03               0
GRID*               5135               02.0214940832E-124.9999988556E+01+
*       1.8000000000E+03               0
GRID*               5136               03.2223113067E-124.9999988556E+01+
*       2.4000000000E+03               0
GRID*               5137               0-7.180034345E-124.9999988556E+01+
*       3.0000000000E+03               0
GRID*               5138               04.1389114358E-124.9999988556E+01+
*       9.6000000000E+03               0
GRID*               5139               02.9878322039E-124.9999988556E+01+
*       9.0000000000E+03               0
GRID*               5140               02.1760371283E-124.9999988556E+01+
*       7.8000000000E+03               0
GRID*               5141               0-2.923883358E-124.9999988556E+01+
*       8.4000000000E+03               0
GRID*               5142               0-1.052012522E-114.9999988556E+01+
*       6.0000000000E+03               0
GRID*               5143               01.8448576000E-114.9999988556E+01+
*       6.6000000000E+03               0
GRID*               5144               0-2.199129767E-124.9999988556E+01+
*       7.2000003030E+03               0
GRID*               5145               0-1.016076112E-124.9999988556E+01+
*       1.3800000000E+04               0
GRID*               5146               02.7533531011E-124.9999988556E+01+
*       1.4400000000E+04               0
GRID*               5147               0-1.065458832E-114.9999988556E+01+
*       1.5600000000E+04               0
GRID*               5148               0-6.945555242E-124.9999988556E+01+
*       1.5000000000E+04               0
GRID*               5149               0-6.743938741E-124.9999988556E+01+
*       1.7400000000E+04               0
GRID*               5150               0-8.260059303E-134.9999988556E+01+
*       1.6800000000E+04               0
GRID*               5151               01.2594369991E-114.9999988556E+01+
*       1.6200000000E+04               0
GRID*               5152               0-1.978861519E-124.9999988556E+01+
*       1.0200000000E+04               0
GRID*               5153               01.4122036873E-124.9999988556E+01+
*       1.1400000000E+04               0
GRID*               5154               0-1.421085472E-144.9999988556E+01+
*       1.0800000000E+04               0
GRID*               5155               09.7344354799E-134.9999988556E+01+
*       1.3200000000E+04               0
GRID*               5156               0-1.803002192E-124.9999988556E+01+
*       1.2600000000E+04               0
GRID*               5157               0-9.887646257E-134.9999988556E+01+
*       1.2000000000E+04               0
GRID*               5166               09.0000000000E+026.5000000000E+02+
*       6.0000000000E+02               0
GRID*               5167               03.0000000000E+026.5000000000E+02+
*       6.0000000000E+02               0
GRID*               5168               0-3.000000000E+026.5000000000E+02+
*       6.0000000000E+02               0
GRID*               5169               0-9.000000000E+026.5000000000E+02+
*       6.0000000000E+02               0
GRID*               5170               0-9.000000000E+026.5000000000E+02+
*       1.2000000000E+03               0
GRID*               5171               0-9.000000000E+026.5000000000E+02+
*       1.8000000000E+03               0
GRID*               5172               0-9.000000000E+026.5000000000E+02+
*       2.4000000000E+03               0
GRID*               5173               0-9.000000000E+026.5000000000E+02+
*       3.0000000000E+03               0
GRID*               5174               0-9.000000000E+026.5000000000E+02+
*       3.6000000000E+03               0
GRID*               5175               0-9.000000000E+026.5000000000E+02+
*       4.2000000000E+03               0
GRID*               5176               0-9.000000000E+026.5000000000E+02+
*       4.8000000000E+03               0
GRID*               5177               0-9.000000000E+026.5000000000E+02+
*       5.4000000000E+03               0
GRID*               5178               0-9.000000000E+026.5000000000E+02+
*       6.0000000000E+03               0
GRID*               5179               0-9.000000000E+026.5000000000E+02+
*       6.6000000000E+03               0
GRID*               5180               0-9.000000000E+026.5000000000E+02+
*       7.2000000000E+03               0
GRID*               5181               0-9.000000000E+026.5000000000E+02+
*       7.8000000000E+03               0
GRID*               5182               0-9.000000000E+026.5000000000E+02+
*       8.4000000000E+03               0
GRID*               5183               0-9.000000000E+026.5000000000E+02+
*       9.0000000000E+03               0
GRID*               5184               0-9.000000000E+026.5000000000E+02+
*       9.6000000000E+03               0
GRID*               5185               0-9.000000000E+026.5000000000E+02+
*       1.0200000000E+04               0
GRID*               5186               0-9.000000000E+026.5000000000E+02+
*       1.0800000000E+04               0
GRID*               5187               0-9.000000000E+026.5000000000E+02+
*       1.1400000000E+04               0
GRID*               5188               0-9.000000000E+026.5000000000E+02+
*       1.2000000000E+04               0
GRID*               5189               0-9.000000000E+026.5000000000E+02+
*       1.2600000000E+04               0
GRID*               5190               0-9.000000000E+026.5000000000E+02+
*       1.3200000000E+04               0
GRID*               5191               0-9.000000000E+026.5000000000E+02+
*       1.3800000000E+04               0
GRID*               5192               0-9.000000000E+026.5000000000E+02+
*       1.4400000000E+04               0
GRID*               5193               0-9.000000000E+026.5000000000E+02+
*       1.5000000000E+04               0
GRID*               5194               0-9.000000000E+026.5000000000E+02+
*       1.5600000000E+04               0
GRID*               5195               0-9.000000000E+026.5000000000E+02+
*       1.6200000000E+04               0
GRID*               5196               0-9.000000000E+026.5000000000E+02+
*       1.6800000000E+04               0
GRID*               5197               0-9.000000000E+026.5000000000E+02+
*       1.7400000000E+04               0
GRID*               5198               0-9.000000000E+026.5000000000E+02+
*       1.8000000000E+04               0
GRID*               5199               0-9.000000000E+026.5000000000E+02+
*       1.8600000000E+04               0
GRID*               5200               0-9.000000000E+026.5000000000E+02+
*       1.9200000000E+04               0
GRID*               5201               0-9.000000000E+026.5000000000E+02+
*       1.9800000000E+04               0
GRID*               5202               0-9.000000000E+026.5000000000E+02+
*       2.0400000000E+04               0
GRID*               5203               0-9.000000000E+026.5000000000E+02+
*       2.1000000000E+04               0
GRID*               5204               0-9.000000000E+026.5000000000E+02+
*       2.1600000000E+04               0
GRID*               5205               0-9.000000000E+026.5000000000E+02+
*       2.2200000000E+04               0
GRID*               5206               0-9.000000000E+026.5000000000E+02+
*       2.2800000000E+04               0
GRID*               5207               0-9.000000000E+026.5000000000E+02+
*       2.3400000000E+04               0
GRID*               5208               0-9.000000000E+026.5000000000E+02+
*       2.4000000000E+04               0
GRID*               5209               0-9.000000000E+026.5000000000E+02+
*       2.4600000000E+04               0
GRID*               5210               0-9.000000000E+026.5000000000E+02+
*       2.5200000000E+04               0
GRID*               5211               0-9.000000000E+026.5000000000E+02+
*       2.5800000000E+04               0
GRID*               5212               0-9.000000000E+026.5000000000E+02+
*       2.6400000000E+04               0
GRID*               5213               0-9.000000000E+026.5000000000E+02+
*       2.7000000000E+04               0
GRID*               5214               0-9.000000000E+026.5000000000E+02+
*       2.7600000000E+04               0
GRID*               5215               0-9.000000000E+026.5000000000E+02+
*       2.8200000000E+04               0
GRID*               5216               0-9.000000000E+026.5000000000E+02+
*       2.8800000000E+04               0
GRID*               5217               0-9.000000000E+026.5000000000E+02+
*       2.9400000000E+04               0
GRID*               5218               0-9.000000000E+026.5000000000E+02+
*       3.0000000000E+04               0
GRID*               5219               0-9.000000000E+026.5000000000E+02+
*       3.0600000000E+04               0
GRID*               5220               0-9.000000000E+026.5000000000E+02+
*       3.1200000000E+04               0
GRID*               5221               0-9.000000000E+026.5000000000E+02+
*       3.1800000000E+04               0
GRID*               5222               0-9.000000000E+026.5000000000E+02+
*       3.2400000000E+04               0
GRID*               5223               0-9.000000000E+026.5000000000E+02+
*       3.3000000000E+04               0
GRID*               5224               0-9.000000000E+026.5000000000E+02+
*       3.3600000000E+04               0
GRID*               5225               0-9.000000000E+026.5000000000E+02+
*       3.4200000000E+04               0
GRID*               5226               0-9.000000000E+026.5000000000E+02+
*       3.4800000000E+04               0
GRID*               5227               0-9.000000000E+026.5000000000E+02+
*       3.5400000000E+04               0
GRID*               5228               0-3.000000000E+026.5000000000E+02+
*       3.5400000000E+04               0
GRID*               5229               03.0000000000E+026.5000000000E+02+
*       3.5400000000E+04               0
GRID*               5230               09.0000000000E+026.5000000000E+02+
*       3.5400000000E+04               0
GRID*               5231               09.0000000000E+026.5000000000E+02+
*       3.4800000000E+04               0
GRID*               5232               09.0000000000E+026.5000000000E+02+
*       3.4200000000E+04               0
GRID*               5233               09.0000000000E+026.5000000000E+02+
*       3.3600000000E+04               0
GRID*               5234               09.0000000000E+026.5000000000E+02+
*       3.3000000000E+04               0
GRID*               5235               09.0000000000E+026.5000000000E+02+
*       3.2400000000E+04               0
GRID*               5236               09.0000000000E+026.5000000000E+02+
*       3.1800000000E+04               0
GRID*               5237               09.0000000000E+026.5000000000E+02+
*       3.1200000000E+04               0
GRID*               5238               09.0000000000E+026.5000000000E+02+
*       3.0600000000E+04               0
GRID*               5239               09.0000000000E+026.5000000000E+02+
*       3.0000000000E+04               0
GRID*               5240               09.0000000000E+026.5000000000E+02+
*       2.9400000000E+04               0
GRID*               5241               09.0000000000E+026.5000000000E+02+
*       2.8800000000E+04               0
GRID*               5242               09.0000000000E+026.5000000000E+02+
*       2.8200000000E+04               0
GRID*               5243               09.0000000000E+026.5000000000E+02+
*       2.7600000000E+04               0
GRID*               5244               09.0000000000E+026.5000000000E+02+
*       2.7000000000E+04               0
GRID*               5245               09.0000000000E+026.5000000000E+02+
*       2.6400000000E+04               0
GRID*               5246               09.0000000000E+026.5000000000E+02+
*       2.5800000000E+04               0
GRID*               5247               09.0000000000E+026.5000000000E+02+
*       2.5200000000E+04               0
GRID*               5248               09.0000000000E+026.5000000000E+02+
*       2.4600000000E+04               0
GRID*               5249               09.0000000000E+026.5000000000E+02+
*       2.4000000000E+04               0
GRID*               5250               09.0000000000E+026.5000000000E+02+
*       2.3400000000E+04               0
GRID*               5251               09.0000000000E+026.5000000000E+02+
*       2.2800000000E+04               0
GRID*               5252               09.0000000000E+026.5000000000E+02+
*       2.2200000000E+04               0
GRID*               5253               09.0000000000E+026.5000000000E+02+
*       2.1600000000E+04               0
GRID*               5254               09.0000000000E+026.5000000000E+02+
*       2.1000000000E+04               0
GRID*               5255               09.0000000000E+026.5000000000E+02+
*       2.0400000000E+04               0
GRID*               5256               09.0000000000E+026.5000000000E+02+
*       1.9800000000E+04               0
GRID*               5257               09.0000000000E+026.5000000000E+02+
*       1.9200000000E+04               0
GRID*               5258               09.0000000000E+026.5000000000E+02+
*       1.8600000000E+04               0
GRID*               5259               09.0000000000E+026.5000000000E+02+
*       1.8000000000E+04               0
GRID*               5260               09.0000000000E+026.5000000000E+02+
*       1.7400000000E+04               0
GRID*               5261               09.0000000000E+026.5000000000E+02+
*       1.6800000000E+04               0
GRID*               5262               09.0000000000E+026.5000000000E+02+
*       1.6200000000E+04               0
GRID*               5263               09.0000000000E+026.5000000000E+02+
*       1.5600000000E+04               0
GRID*               5264               09.0000000000E+026.5000000000E+02+
*       1.5000000000E+04               0
GRID*               5265               09.0000000000E+026.5000000000E+02+
*       1.4400000000E+04               0
GRID*               5266               09.0000000000E+026.5000000000E+02+
*       1.3800000000E+04               0
GRID*               5267               09.0000000000E+026.5000000000E+02+
*       1.3200000000E+04               0
GRID*               5268               09.0000000000E+026.5000000000E+02+
*       1.2600000000E+04               0
GRID*               5269               09.0000000000E+026.5000000000E+02+
*       1.2000000000E+04               0
GRID*               5270               09.0000000000E+026.5000000000E+02+
*       1.1400000000E+04               0
GRID*               5271               09.0000000000E+026.5000000000E+02+
*       1.0800000000E+04               0
GRID*               5272               09.0000000000E+026.5000000000E+02+
*       1.0200000000E+04               0
GRID*               5273               09.0000000000E+026.5000000000E+02+
*       9.6000000000E+03               0
GRID*               5274               09.0000000000E+026.5000000000E+02+
*       9.0000000000E+03               0
GRID*               5275               09.0000000000E+026.5000000000E+02+
*       8.4000000000E+03               0
GRID*               5276               09.0000000000E+026.5000000000E+02+
*       7.8000000000E+03               0
GRID*               5277               09.0000000000E+026.5000000000E+02+
*       7.2000000000E+03               0
GRID*               5278               09.0000000000E+026.5000000000E+02+
*       6.6000000000E+03               0
GRID*               5279               09.0000000000E+026.5000000000E+02+
*       6.0000000000E+03               0
GRID*               5280               09.0000000000E+026.5000000000E+02+
*       5.4000000000E+03               0
GRID*               5281               09.0000000000E+026.5000000000E+02+
*       4.8000000000E+03               0
GRID*               5282               09.0000000000E+026.5000000000E+02+
*       4.2000000000E+03               0
GRID*               5283               09.0000000000E+026.5000000000E+02+
*       3.6000000000E+03               0
GRID*               5284               09.0000000000E+026.5000000000E+02+
*       3.0000000000E+03               0
GRID*               5285               09.0000000000E+026.5000000000E+02+
*       2.4000000000E+03               0
GRID*               5286               09.0000000000E+026.5000000000E+02+
*       1.8000000000E+03               0
GRID*               5287               09.0000000000E+026.5000000000E+02+
*       1.2000000000E+03               0
GRID*               5288               03.0000000000E+026.5000000000E+02+
*       1.2000000000E+03               0
GRID*               5289               0-3.000000000E+026.5000000000E+02+
*       1.2000000000E+03               0
GRID*               5290               0-3.000000000E+026.5000000000E+02+
*       1.8000000000E+03               0
GRID*               5291               0-3.000000000E+026.5000000000E+02+
*       2.4000000000E+03               0
GRID*               5292               0-3.000000000E+026.5000000000E+02+
*       3.0000000000E+03               0
GRID*               5293               0-3.000000000E+026.5000000000E+02+
*       3.6000000000E+03               0
GRID*               5294               0-3.000000000E+026.5000000000E+02+
*       4.2000000000E+03               0
GRID*               5295               0-3.000000000E+026.5000000000E+02+
*       4.8000000000E+03               0
GRID*               5296               0-3.000000000E+026.5000000000E+02+
*       5.4000000000E+03               0
GRID*               5297               0-3.000000000E+026.5000000000E+02+
*       6.0000000000E+03               0
GRID*               5298               0-3.000000000E+026.5000000000E+02+
*       6.6000000000E+03               0
GRID*               5299               0-3.000000000E+026.5000000000E+02+
*       7.2000000000E+03               0
GRID*               5300               0-3.000000000E+026.5000000000E+02+
*       7.8000000000E+03               0
GRID*               5301               0-3.000000000E+026.5000000000E+02+
*       8.4000000000E+03               0
GRID*               5302               0-3.000000000E+026.5000000000E+02+
*       9.0000000000E+03               0
GRID*               5303               0-3.000000000E+026.5000000000E+02+
*       9.6000000000E+03               0
GRID*               5304               0-3.000000000E+026.5000000000E+02+
*       1.0200000000E+04               0
GRID*               5305               0-3.000000000E+026.5000000000E+02+
*       1.0800000000E+04               0
GRID*               5306               0-3.000000000E+026.5000000000E+02+
*       1.1400000000E+04               0
GRID*               5307               0-3.000000000E+026.5000000000E+02+
*       1.2000000000E+04               0
GRID*               5308               0-3.000000000E+026.5000000000E+02+
*       1.2600000000E+04               0
GRID*               5309               0-3.000000000E+026.5000000000E+02+
*       1.3200000000E+04               0
GRID*               5310               0-3.000000000E+026.5000000000E+02+
*       1.3800000000E+04               0
GRID*               5311               0-3.000000000E+026.5000000000E+02+
*       1.4400000000E+04               0
GRID*               5312               0-3.000000000E+026.5000000000E+02+
*       1.5000000000E+04               0
GRID*               5313               0-3.000000000E+026.5000000000E+02+
*       1.5600000000E+04               0
GRID*               5314               0-3.000000000E+026.5000000000E+02+
*       1.6200000000E+04               0
GRID*               5315               0-3.000000000E+026.5000000000E+02+
*       1.6800000000E+04               0
GRID*               5316               0-3.000000000E+026.5000000000E+02+
*       1.7400000000E+04               0
GRID*               5317               0-3.000000000E+026.5000000000E+02+
*       1.8000000000E+04               0
GRID*               5318               0-3.000000000E+026.5000000000E+02+
*       1.8600000000E+04               0
GRID*               5319               0-3.000000000E+026.5000000000E+02+
*       1.9200000000E+04               0
GRID*               5320               0-3.000000000E+026.5000000000E+02+
*       1.9800000000E+04               0
GRID*               5321               0-3.000000000E+026.5000000000E+02+
*       2.0400000000E+04               0
GRID*               5322               0-3.000000000E+026.5000000000E+02+
*       2.1000000000E+04               0
GRID*               5323               0-3.000000000E+026.5000000000E+02+
*       2.1600000000E+04               0
GRID*               5324               0-3.000000000E+026.5000000000E+02+
*       2.2200000000E+04               0
GRID*               5325               0-3.000000000E+026.5000000000E+02+
*       2.2800000000E+04               0
GRID*               5326               0-3.000000000E+026.5000000000E+02+
*       2.3400000000E+04               0
GRID*               5327               0-3.000000000E+026.5000000000E+02+
*       2.4000000000E+04               0
GRID*               5328               0-3.000000000E+026.5000000000E+02+
*       2.4600000000E+04               0
GRID*               5329               0-3.000000000E+026.5000000000E+02+
*       2.5200000000E+04               0
GRID*               5330               0-3.000000000E+026.5000000000E+02+
*       2.5800000000E+04               0
GRID*               5331               0-3.000000000E+026.5000000000E+02+
*       2.6400000000E+04               0
GRID*               5332               0-3.000000000E+026.5000000000E+02+
*       2.7000000000E+04               0
GRID*               5333               0-3.000000000E+026.5000000000E+02+
*       2.7600000000E+04               0
GRID*               5334               0-3.000000000E+026.5000000000E+02+
*       2.8200000000E+04               0
GRID*               5335               0-3.000000000E+026.5000000000E+02+
*       2.8800000000E+04               0
GRID*               5336               0-3.000000000E+026.5000000000E+02+
*       2.9400000000E+04               0
GRID*               5337               0-3.000000000E+026.5000000000E+02+
*       3.0000000000E+04               0
GRID*               5338               0-3.000000000E+026.5000000000E+02+
*       3.0600000000E+04               0
GRID*               5339               0-3.000000000E+026.5000000000E+02+
*       3.1200000000E+04               0
GRID*               5340               0-3.000000000E+026.5000000000E+02+
*       3.1800000000E+04               0
GRID*               5341               0-3.000000000E+026.5000000000E+02+
*       3.2400000000E+04               0
GRID*               5342               0-3.000000000E+026.5000000000E+02+
*       3.3000000000E+04               0
GRID*               5343               0-3.000000000E+026.5000000000E+02+
*       3.3600000000E+04               0
GRID*               5344               0-3.000000000E+026.5000000000E+02+
*       3.4200000000E+04               0
GRID*               5345               0-3.000000000E+026.5000000000E+02+
*       3.4800000000E+04               0
GRID*               5346               03.0000000000E+026.5000000000E+02+
*       3.4800000000E+04               0
GRID*               5347               03.0000000000E+026.5000000000E+02+
*       3.4200000000E+04               0
GRID*               5348               03.0000000000E+026.5000000000E+02+
*       3.3600000000E+04               0
GRID*               5349               03.0000000000E+026.5000000000E+02+
*       3.3000000000E+04               0
GRID*               5350               03.0000000000E+026.5000000000E+02+
*       3.2400000000E+04               0
GRID*               5351               03.0000000000E+026.5000000000E+02+
*       3.1800000000E+04               0
GRID*               5352               03.0000000000E+026.5000000000E+02+
*       3.1200000000E+04               0
GRID*               5353               03.0000000000E+026.5000000000E+02+
*       3.0600000000E+04               0
GRID*               5354               03.0000000000E+026.5000000000E+02+
*       3.0000000000E+04               0
GRID*               5355               03.0000000000E+026.5000000000E+02+
*       2.9400000000E+04               0
GRID*               5356               03.0000000000E+026.5000000000E+02+
*       2.8800000000E+04               0
GRID*               5357               03.0000000000E+026.5000000000E+02+
*       2.8200000000E+04               0
GRID*               5358               03.0000000000E+026.5000000000E+02+
*       2.7600000000E+04               0
GRID*               5359               03.0000000000E+026.5000000000E+02+
*       2.7000000000E+04               0
GRID*               5360               03.0000000000E+026.5000000000E+02+
*       2.6400000000E+04               0
GRID*               5361               03.0000000000E+026.5000000000E+02+
*       2.5800000000E+04               0
GRID*               5362               03.0000000000E+026.5000000000E+02+
*       2.5200000000E+04               0
GRID*               5363               03.0000000000E+026.5000000000E+02+
*       2.4600000000E+04               0
GRID*               5364               03.0000000000E+026.5000000000E+02+
*       2.4000000000E+04               0
GRID*               5365               03.0000000000E+026.5000000000E+02+
*       2.3400000000E+04               0
GRID*               5366               03.0000000000E+026.5000000000E+02+
*       2.2800000000E+04               0
GRID*               5367               03.0000000000E+026.5000000000E+02+
*       2.2200000000E+04               0
GRID*               5368               03.0000000000E+026.5000000000E+02+
*       2.1600000000E+04               0
GRID*               5369               03.0000000000E+026.5000000000E+02+
*       2.1000000000E+04               0
GRID*               5370               03.0000000000E+026.5000000000E+02+
*       2.0400000000E+04               0
GRID*               5371               03.0000000000E+026.5000000000E+02+
*       1.9800000000E+04               0
GRID*               5372               03.0000000000E+026.5000000000E+02+
*       1.9200000000E+04               0
GRID*               5373               03.0000000000E+026.5000000000E+02+
*       1.8600000000E+04               0
GRID*               5374               03.0000000000E+026.5000000000E+02+
*       1.8000000000E+04               0
GRID*               5375               03.0000000000E+026.5000000000E+02+
*       1.7400000000E+04               0
GRID*               5376               03.0000000000E+026.5000000000E+02+
*       1.6800000000E+04               0
GRID*               5377               03.0000000000E+026.5000000000E+02+
*       1.6200000000E+04               0
GRID*               5378               03.0000000000E+026.5000000000E+02+
*       1.5600000000E+04               0
GRID*               5379               03.0000000000E+026.5000000000E+02+
*       1.5000000000E+04               0
GRID*               5380               03.0000000000E+026.5000000000E+02+
*       1.4400000000E+04               0
GRID*               5381               03.0000000000E+026.5000000000E+02+
*       1.3800000000E+04               0
GRID*               5382               03.0000000000E+026.5000000000E+02+
*       1.3200000000E+04               0
GRID*               5383               03.0000000000E+026.5000000000E+02+
*       1.2600000000E+04               0
GRID*               5384               03.0000000000E+026.5000000000E+02+
*       1.2000000000E+04               0
GRID*               5385               03.0000000000E+026.5000000000E+02+
*       1.1400000000E+04               0
GRID*               5386               03.0000000000E+026.5000000000E+02+
*       1.0800000000E+04               0
GRID*               5387               03.0000000000E+026.5000000000E+02+
*       1.0200000000E+04               0
GRID*               5388               03.0000000000E+026.5000000000E+02+
*       9.6000000000E+03               0
GRID*               5389               03.0000000000E+026.5000000000E+02+
*       9.0000000000E+03               0
GRID*               5390               03.0000000000E+026.5000000000E+02+
*       8.4000000000E+03               0
GRID*               5391               03.0000000000E+026.5000000000E+02+
*       7.8000000000E+03               0
GRID*               5392               03.0000000000E+026.5000000000E+02+
*       7.2000000000E+03               0
GRID*               5393               03.0000000000E+026.5000000000E+02+
*       6.6000000000E+03               0
GRID*               5394               03.0000000000E+026.5000000000E+02+
*       6.0000000000E+03               0
GRID*               5395               03.0000000000E+026.5000000000E+02+
*       5.4000000000E+03               0
GRID*               5396               03.0000000000E+026.5000000000E+02+
*       4.8000000000E+03               0
GRID*               5397               03.0000000000E+026.5000000000E+02+
*       4.2000000000E+03               0
GRID*               5398               03.0000000000E+026.5000000000E+02+
*       3.6000000000E+03               0
GRID*               5399               03.0000000000E+026.5000000000E+02+
*       3.0000000000E+03               0
GRID*               5400               03.0000000000E+026.5000000000E+02+
*       2.4000000000E+03               0
GRID*               5401               03.0000000000E+026.5000000000E+02+
*       1.8000000000E+03               0
GRID*               5402               01.2000000000E+036.5000000000E+02+
*       6.0000000000E+02               0
GRID*               5403               09.0000000000E+026.5000000000E+02+
*       3.0000000000E+02               0
GRID*               5404               03.0000000000E+026.5000000000E+02+
*       3.0000000000E+02               0
GRID*               5405               06.0000000000E+026.5000000000E+02+
*       6.0000000000E+02               0
GRID*               5406               0-3.000000000E+026.5000000000E+02+
*       3.0000000000E+02               0
GRID*               5407               01.8474111130E-136.5000000000E+02+
*       6.0000000000E+02               0
GRID*               5408               0-9.000000000E+026.5000000000E+02+
*       3.0000000000E+02               0
GRID*               5409               0-6.000000000E+026.5000000000E+02+
*       6.0000000000E+02               0
GRID*               5410               0-1.200000000E+036.5000000000E+02+
*       6.0000000000E+02               0
GRID*               5411               0-1.200000000E+036.5000000000E+02+
*       1.2000000000E+03               0
GRID*               5412               0-9.000000000E+026.5000000000E+02+
*       9.0000000000E+02               0
GRID*               5413               0-1.200000000E+036.5000000000E+02+
*       1.8000000000E+03               0
GRID*               5414               0-9.000000000E+026.5000000000E+02+
*       1.5000000000E+03               0
GRID*               5415               0-1.200000000E+036.5000000000E+02+
*       2.4000000000E+03               0
GRID*               5416               0-9.000000000E+026.5000000000E+02+
*       2.1000000000E+03               0
GRID*               5417               0-1.200000000E+036.5000000000E+02+
*       3.0000000000E+03               0
GRID*               5418               0-9.000000000E+026.5000000000E+02+
*       2.7000000000E+03               0
GRID*               5419               0-1.200000000E+036.5000000000E+02+
*       3.6000000000E+03               0
GRID*               5420               0-9.000000000E+026.5000000000E+02+
*       3.3000000000E+03               0
GRID*               5421               0-1.200000000E+036.5000000000E+02+
*       4.2000000000E+03               0
GRID*               5422               0-9.000000000E+026.5000000000E+02+
*       3.9000000000E+03               0
GRID*               5423               0-1.200000000E+036.5000000000E+02+
*       4.8000000000E+03               0
GRID*               5424               0-9.000000000E+026.5000000000E+02+
*       4.5000000000E+03               0
GRID*               5425               0-1.200000000E+036.5000000000E+02+
*       5.4000000000E+03               0
GRID*               5426               0-9.000000000E+026.5000000000E+02+
*       5.1000000000E+03               0
GRID*               5427               0-1.200000000E+036.5000000000E+02+
*       6.0000000000E+03               0
GRID*               5428               0-9.000000000E+026.5000000000E+02+
*       5.7000000000E+03               0
GRID*               5429               0-1.200000000E+036.5000000000E+02+
*       6.6000000000E+03               0
GRID*               5430               0-9.000000000E+026.5000000000E+02+
*       6.3000000000E+03               0
GRID*               5431               0-1.200000000E+036.5000000000E+02+
*       7.2000000000E+03               0
GRID*               5432               0-9.000000000E+026.5000000000E+02+
*       6.9000000000E+03               0
GRID*               5433               0-1.200000000E+036.5000000000E+02+
*       7.8000000000E+03               0
GRID*               5434               0-9.000000000E+026.5000000000E+02+
*       7.5000000000E+03               0
GRID*               5435               0-1.200000000E+036.5000000000E+02+
*       8.4000000000E+03               0
GRID*               5436               0-9.000000000E+026.5000000000E+02+
*       8.1000000000E+03               0
GRID*               5437               0-1.200000000E+036.5000000000E+02+
*       9.0000000000E+03               0
GRID*               5438               0-9.000000000E+026.5000000000E+02+
*       8.7000000000E+03               0
GRID*               5439               0-1.200000000E+036.5000000000E+02+
*       9.6000000000E+03               0
GRID*               5440               0-9.000000000E+026.5000000000E+02+
*       9.3000000000E+03               0
GRID*               5441               0-1.200000000E+036.5000000000E+02+
*       1.0200000000E+04               0
GRID*               5442               0-9.000000000E+026.5000000000E+02+
*       9.9000000000E+03               0
GRID*               5443               0-1.200000000E+036.5000000000E+02+
*       1.0800000000E+04               0
GRID*               5444               0-9.000000000E+026.5000000000E+02+
*       1.0500000000E+04               0
GRID*               5445               0-1.200000000E+036.5000000000E+02+
*       1.1400000000E+04               0
GRID*               5446               0-9.000000000E+026.5000000000E+02+
*       1.1100000000E+04               0
GRID*               5447               0-1.200000000E+036.5000000000E+02+
*       1.2000000000E+04               0
GRID*               5448               0-9.000000000E+026.5000000000E+02+
*       1.1700000000E+04               0
GRID*               5449               0-1.200000000E+036.5000000000E+02+
*       1.2600000000E+04               0
GRID*               5450               0-9.000000000E+026.5000000000E+02+
*       1.2300000000E+04               0
GRID*               5451               0-1.200000000E+036.5000000000E+02+
*       1.3200000000E+04               0
GRID*               5452               0-9.000000000E+026.5000000000E+02+
*       1.2900000000E+04               0
GRID*               5453               0-1.200000000E+036.5000000000E+02+
*       1.3800000000E+04               0
GRID*               5454               0-9.000000000E+026.5000000000E+02+
*       1.3500000000E+04               0
GRID*               5455               0-1.200000000E+036.5000000000E+02+
*       1.4400000000E+04               0
GRID*               5456               0-9.000000000E+026.5000000000E+02+
*       1.4100000000E+04               0
GRID*               5457               0-1.200000000E+036.5000000000E+02+
*       1.5000000000E+04               0
GRID*               5458               0-9.000000000E+026.5000000000E+02+
*       1.4700000000E+04               0
GRID*               5459               0-1.200000000E+036.5000000000E+02+
*       1.5600000000E+04               0
GRID*               5460               0-9.000000000E+026.5000000000E+02+
*       1.5300000000E+04               0
GRID*               5461               0-1.200000000E+036.5000000000E+02+
*       1.6200000000E+04               0
GRID*               5462               0-9.000000000E+026.5000000000E+02+
*       1.5900000000E+04               0
GRID*               5463               0-1.200000000E+036.5000000000E+02+
*       1.6800000000E+04               0
GRID*               5464               0-9.000000000E+026.5000000000E+02+
*       1.6500000000E+04               0
GRID*               5465               0-1.200000000E+036.5000000000E+02+
*       1.7400000000E+04               0
GRID*               5466               0-9.000000000E+026.5000000000E+02+
*       1.7100000000E+04               0
GRID*               5467               0-1.200000000E+036.5000000000E+02+
*       1.8000000000E+04               0
GRID*               5468               0-9.000000000E+026.5000000000E+02+
*       1.7700000000E+04               0
GRID*               5469               0-1.200000000E+036.5000000000E+02+
*       1.8600000000E+04               0
GRID*               5470               0-9.000000000E+026.5000000000E+02+
*       1.8300000000E+04               0
GRID*               5471               0-1.200000000E+036.5000000000E+02+
*       1.9200000000E+04               0
GRID*               5472               0-9.000000000E+026.5000000000E+02+
*       1.8900000000E+04               0
GRID*               5473               0-1.200000000E+036.5000000000E+02+
*       1.9800000000E+04               0
GRID*               5474               0-9.000000000E+026.5000000000E+02+
*       1.9500000000E+04               0
GRID*               5475               0-1.200000000E+036.5000000000E+02+
*       2.0400000000E+04               0
GRID*               5476               0-9.000000000E+026.5000000000E+02+
*       2.0100000000E+04               0
GRID*               5477               0-1.200000000E+036.5000000000E+02+
*       2.1000000000E+04               0
GRID*               5478               0-9.000000000E+026.5000000000E+02+
*       2.0700000000E+04               0
GRID*               5479               0-1.200000000E+036.5000000000E+02+
*       2.1600000000E+04               0
GRID*               5480               0-9.000000000E+026.5000000000E+02+
*       2.1300000000E+04               0
GRID*               5481               0-1.200000000E+036.5000000000E+02+
*       2.2200000000E+04               0
GRID*               5482               0-9.000000000E+026.5000000000E+02+
*       2.1900000000E+04               0
GRID*               5483               0-1.200000000E+036.5000000000E+02+
*       2.2800000000E+04               0
GRID*               5484               0-9.000000000E+026.5000000000E+02+
*       2.2500000000E+04               0
GRID*               5485               0-1.200000000E+036.5000000000E+02+
*       2.3400000000E+04               0
GRID*               5486               0-9.000000000E+026.5000000000E+02+
*       2.3100000000E+04               0
GRID*               5487               0-1.200000000E+036.5000000000E+02+
*       2.4000000000E+04               0
GRID*               5488               0-9.000000000E+026.5000000000E+02+
*       2.3700000000E+04               0
GRID*               5489               0-1.200000000E+036.5000000000E+02+
*       2.4600000000E+04               0
GRID*               5490               0-9.000000000E+026.5000000000E+02+
*       2.4300000000E+04               0
GRID*               5491               0-1.200000000E+036.5000000000E+02+
*       2.5200000000E+04               0
GRID*               5492               0-9.000000000E+026.5000000000E+02+
*       2.4900000000E+04               0
GRID*               5493               0-1.200000000E+036.5000000000E+02+
*       2.5800000000E+04               0
GRID*               5494               0-9.000000000E+026.5000000000E+02+
*       2.5500000000E+04               0
GRID*               5495               0-1.200000000E+036.5000000000E+02+
*       2.6400000000E+04               0
GRID*               5496               0-9.000000000E+026.5000000000E+02+
*       2.6100000000E+04               0
GRID*               5497               0-1.200000000E+036.5000000000E+02+
*       2.7000000000E+04               0
GRID*               5498               0-9.000000000E+026.5000000000E+02+
*       2.6700000000E+04               0
GRID*               5499               0-1.200000000E+036.5000000000E+02+
*       2.7600000000E+04               0
GRID*               5500               0-9.000000000E+026.5000000000E+02+
*       2.7300000000E+04               0
GRID*               5501               0-1.200000000E+036.5000000000E+02+
*       2.8200000000E+04               0
GRID*               5502               0-9.000000000E+026.5000000000E+02+
*       2.7900000000E+04               0
GRID*               5503               0-1.200000000E+036.5000000000E+02+
*       2.8800000000E+04               0
GRID*               5504               0-9.000000000E+026.5000000000E+02+
*       2.8500000000E+04               0
GRID*               5505               0-1.200000000E+036.5000000000E+02+
*       2.9400000000E+04               0
GRID*               5506               0-9.000000000E+026.5000000000E+02+
*       2.9100000000E+04               0
GRID*               5507               0-1.200000000E+036.5000000000E+02+
*       3.0000000000E+04               0
GRID*               5508               0-9.000000000E+026.5000000000E+02+
*       2.9700000000E+04               0
GRID*               5509               0-1.200000000E+036.5000000000E+02+
*       3.0600000000E+04               0
GRID*               5510               0-9.000000000E+026.5000000000E+02+
*       3.0300000000E+04               0
GRID*               5511               0-1.200000000E+036.5000000000E+02+
*       3.1200000000E+04               0
GRID*               5512               0-9.000000000E+026.5000000000E+02+
*       3.0900000000E+04               0
GRID*               5513               0-1.200000000E+036.5000000000E+02+
*       3.1800000000E+04               0
GRID*               5514               0-9.000000000E+026.5000000000E+02+
*       3.1500000000E+04               0
GRID*               5515               0-1.200000000E+036.5000000000E+02+
*       3.2400000000E+04               0
GRID*               5516               0-9.000000000E+026.5000000000E+02+
*       3.2100000000E+04               0
GRID*               5517               0-1.200000000E+036.5000000000E+02+
*       3.3000000000E+04               0
GRID*               5518               0-9.000000000E+026.5000000000E+02+
*       3.2700000000E+04               0
GRID*               5519               0-1.200000000E+036.5000000000E+02+
*       3.3600000000E+04               0
GRID*               5520               0-9.000000000E+026.5000000000E+02+
*       3.3300000000E+04               0
GRID*               5521               0-1.200000000E+036.5000000000E+02+
*       3.4200000000E+04               0
GRID*               5522               0-9.000000000E+026.5000000000E+02+
*       3.3900000000E+04               0
GRID*               5523               0-1.200000000E+036.5000000000E+02+
*       3.4800000000E+04               0
GRID*               5524               0-9.000000000E+026.5000000000E+02+
*       3.4500000000E+04               0
GRID*               5525               0-1.200000000E+036.5000000000E+02+
*       3.5400000000E+04               0
GRID*               5526               0-9.000000000E+026.5000000000E+02+
*       3.5100000000E+04               0
GRID*               5527               0-9.000000000E+026.5000000000E+02+
*       3.5700000000E+04               0
GRID*               5528               0-3.000000000E+026.5000000000E+02+
*       3.5700000000E+04               0
GRID*               5529               0-6.000000000E+026.5000000000E+02+
*       3.5400000000E+04               0
GRID*               5530               03.0000000000E+026.5000000000E+02+
*       3.5700000000E+04               0
GRID*               5531               0-1.829647545E-136.5000000000E+02+
*       3.5400000000E+04               0
GRID*               5532               09.0000000000E+026.5000000000E+02+
*       3.5700000000E+04               0
GRID*               5533               06.0000000000E+026.5000000000E+02+
*       3.5400000000E+04               0
GRID*               5534               01.2000000000E+036.5000000000E+02+
*       3.5400000000E+04               0
GRID*               5535               01.2000000000E+036.5000000000E+02+
*       3.4800000000E+04               0
GRID*               5536               09.0000000000E+026.5000000000E+02+
*       3.5100000000E+04               0
GRID*               5537               01.2000000000E+036.5000000000E+02+
*       3.4200000000E+04               0
GRID*               5538               09.0000000000E+026.5000000000E+02+
*       3.4500000000E+04               0
GRID*               5539               01.2000000000E+036.5000000000E+02+
*       3.3600000000E+04               0
GRID*               5540               09.0000000000E+026.5000000000E+02+
*       3.3900000000E+04               0
GRID*               5541               01.2000000000E+036.5000000000E+02+
*       3.3000000000E+04               0
GRID*               5542               09.0000000000E+026.5000000000E+02+
*       3.3300000000E+04               0
GRID*               5543               01.2000000000E+036.5000000000E+02+
*       3.2400000000E+04               0
GRID*               5544               09.0000000000E+026.5000000000E+02+
*       3.2700000000E+04               0
GRID*               5545               01.2000000000E+036.5000000000E+02+
*       3.1800000000E+04               0
GRID*               5546               09.0000000000E+026.5000000000E+02+
*       3.2100000000E+04               0
GRID*               5547               01.2000000000E+036.5000000000E+02+
*       3.1200000000E+04               0
GRID*               5548               09.0000000000E+026.5000000000E+02+
*       3.1500000000E+04               0
GRID*               5549               01.2000000000E+036.5000000000E+02+
*       3.0600000000E+04               0
GRID*               5550               09.0000000000E+026.5000000000E+02+
*       3.0900000000E+04               0
GRID*               5551               01.2000000000E+036.5000000000E+02+
*       3.0000000000E+04               0
GRID*               5552               09.0000000000E+026.5000000000E+02+
*       3.0300000000E+04               0
GRID*               5553               01.2000000000E+036.5000000000E+02+
*       2.9400000000E+04               0
GRID*               5554               09.0000000000E+026.5000000000E+02+
*       2.9700000000E+04               0
GRID*               5555               01.2000000000E+036.5000000000E+02+
*       2.8800000000E+04               0
GRID*               5556               09.0000000000E+026.5000000000E+02+
*       2.9100000000E+04               0
GRID*               5557               01.2000000000E+036.5000000000E+02+
*       2.8200000000E+04               0
GRID*               5558               09.0000000000E+026.5000000000E+02+
*       2.8500000000E+04               0
GRID*               5559               01.2000000000E+036.5000000000E+02+
*       2.7600000000E+04               0
GRID*               5560               09.0000000000E+026.5000000000E+02+
*       2.7900000000E+04               0
GRID*               5561               01.2000000000E+036.5000000000E+02+
*       2.7000000000E+04               0
GRID*               5562               09.0000000000E+026.5000000000E+02+
*       2.7300000000E+04               0
GRID*               5563               01.2000000000E+036.5000000000E+02+
*       2.6400000000E+04               0
GRID*               5564               09.0000000000E+026.5000000000E+02+
*       2.6700000000E+04               0
GRID*               5565               01.2000000000E+036.5000000000E+02+
*       2.5800000000E+04               0
GRID*               5566               09.0000000000E+026.5000000000E+02+
*       2.6100000000E+04               0
GRID*               5567               01.2000000000E+036.5000000000E+02+
*       2.5200000000E+04               0
GRID*               5568               09.0000000000E+026.5000000000E+02+
*       2.5500000000E+04               0
GRID*               5569               01.2000000000E+036.5000000000E+02+
*       2.4600000000E+04               0
GRID*               5570               09.0000000000E+026.5000000000E+02+
*       2.4900000000E+04               0
GRID*               5571               01.2000000000E+036.5000000000E+02+
*       2.4000000000E+04               0
GRID*               5572               09.0000000000E+026.5000000000E+02+
*       2.4300000000E+04               0
GRID*               5573               01.2000000000E+036.5000000000E+02+
*       2.3400000000E+04               0
GRID*               5574               09.0000000000E+026.5000000000E+02+
*       2.3700000000E+04               0
GRID*               5575               01.2000000000E+036.5000000000E+02+
*       2.2800000000E+04               0
GRID*               5576               09.0000000000E+026.5000000000E+02+
*       2.3100000000E+04               0
GRID*               5577               01.2000000000E+036.5000000000E+02+
*       2.2200000000E+04               0
GRID*               5578               09.0000000000E+026.5000000000E+02+
*       2.2500000000E+04               0
GRID*               5579               01.2000000000E+036.5000000000E+02+
*       2.1600000000E+04               0
GRID*               5580               09.0000000000E+026.5000000000E+02+
*       2.1900000000E+04               0
GRID*               5581               01.2000000000E+036.5000000000E+02+
*       2.1000000000E+04               0
GRID*               5582               09.0000000000E+026.5000000000E+02+
*       2.1300000000E+04               0
GRID*               5583               01.2000000000E+036.5000000000E+02+
*       2.0400000000E+04               0
GRID*               5584               09.0000000000E+026.5000000000E+02+
*       2.0700000000E+04               0
GRID*               5585               01.2000000000E+036.5000000000E+02+
*       1.9800000000E+04               0
GRID*               5586               09.0000000000E+026.5000000000E+02+
*       2.0100000000E+04               0
GRID*               5587               01.2000000000E+036.5000000000E+02+
*       1.9200000000E+04               0
GRID*               5588               09.0000000000E+026.5000000000E+02+
*       1.9500000000E+04               0
GRID*               5589               01.2000000000E+036.5000000000E+02+
*       1.8600000000E+04               0
GRID*               5590               09.0000000000E+026.5000000000E+02+
*       1.8900000000E+04               0
GRID*               5591               01.2000000000E+036.5000000000E+02+
*       1.8000000000E+04               0
GRID*               5592               09.0000000000E+026.5000000000E+02+
*       1.8300000000E+04               0
GRID*               5593               01.2000000000E+036.5000000000E+02+
*       1.7400000000E+04               0
GRID*               5594               09.0000000000E+026.5000000000E+02+
*       1.7700000000E+04               0
GRID*               5595               01.2000000000E+036.5000000000E+02+
*       1.6800000000E+04               0
GRID*               5596               09.0000000000E+026.5000000000E+02+
*       1.7100000000E+04               0
GRID*               5597               01.2000000000E+036.5000000000E+02+
*       1.6200000000E+04               0
GRID*               5598               09.0000000000E+026.5000000000E+02+
*       1.6500000000E+04               0
GRID*               5599               01.2000000000E+036.5000000000E+02+
*       1.5600000000E+04               0
GRID*               5600               09.0000000000E+026.5000000000E+02+
*       1.5900000000E+04               0
GRID*               5601               01.2000000000E+036.5000000000E+02+
*       1.5000000000E+04               0
GRID*               5602               09.0000000000E+026.5000000000E+02+
*       1.5300000000E+04               0
GRID*               5603               01.2000000000E+036.5000000000E+02+
*       1.4400000000E+04               0
GRID*               5604               09.0000000000E+026.5000000000E+02+
*       1.4700000000E+04               0
GRID*               5605               01.2000000000E+036.5000000000E+02+
*       1.3800000000E+04               0
GRID*               5606               09.0000000000E+026.5000000000E+02+
*       1.4100000000E+04               0
GRID*               5607               01.2000000000E+036.5000000000E+02+
*       1.3200000000E+04               0
GRID*               5608               09.0000000000E+026.5000000000E+02+
*       1.3500000000E+04               0
GRID*               5609               01.2000000000E+036.5000000000E+02+
*       1.2600000000E+04               0
GRID*               5610               09.0000000000E+026.5000000000E+02+
*       1.2900000000E+04               0
GRID*               5611               01.2000000000E+036.5000000000E+02+
*       1.2000000000E+04               0
GRID*               5612               09.0000000000E+026.5000000000E+02+
*       1.2300000000E+04               0
GRID*               5613               01.2000000000E+036.5000000000E+02+
*       1.1400000000E+04               0
GRID*               5614               09.0000000000E+026.5000000000E+02+
*       1.1700000000E+04               0
GRID*               5615               01.2000000000E+036.5000000000E+02+
*       1.0800000000E+04               0
GRID*               5616               09.0000000000E+026.5000000000E+02+
*       1.1100000000E+04               0
GRID*               5617               01.2000000000E+036.5000000000E+02+
*       1.0200000000E+04               0
GRID*               5618               09.0000000000E+026.5000000000E+02+
*       1.0500000000E+04               0
GRID*               5619               01.2000000000E+036.5000000000E+02+
*       9.6000000000E+03               0
GRID*               5620               09.0000000000E+026.5000000000E+02+
*       9.9000000000E+03               0
GRID*               5621               01.2000000000E+036.5000000000E+02+
*       9.0000000000E+03               0
GRID*               5622               09.0000000000E+026.5000000000E+02+
*       9.3000000000E+03               0
GRID*               5623               01.2000000000E+036.5000000000E+02+
*       8.4000000000E+03               0
GRID*               5624               09.0000000000E+026.5000000000E+02+
*       8.7000000000E+03               0
GRID*               5625               01.2000000000E+036.5000000000E+02+
*       7.8000000000E+03               0
GRID*               5626               09.0000000000E+026.5000000000E+02+
*       8.1000000000E+03               0
GRID*               5627               01.2000000000E+036.5000000000E+02+
*       7.2000000000E+03               0
GRID*               5628               09.0000000000E+026.5000000000E+02+
*       7.5000000000E+03               0
GRID*               5629               01.2000000000E+036.5000000000E+02+
*       6.6000000000E+03               0
GRID*               5630               09.0000000000E+026.5000000000E+02+
*       6.9000000000E+03               0
GRID*               5631               01.2000000000E+036.5000000000E+02+
*       6.0000000000E+03               0
GRID*               5632               09.0000000000E+026.5000000000E+02+
*       6.3000000000E+03               0
GRID*               5633               01.2000000000E+036.5000000000E+02+
*       5.4000000000E+03               0
GRID*               5634               09.0000000000E+026.5000000000E+02+
*       5.7000000000E+03               0
GRID*               5635               01.2000000000E+036.5000000000E+02+
*       4.8000000000E+03               0
GRID*               5636               09.0000000000E+026.5000000000E+02+
*       5.1000000000E+03               0
GRID*               5637               01.2000000000E+036.5000000000E+02+
*       4.2000000000E+03               0
GRID*               5638               09.0000000000E+026.5000000000E+02+
*       4.5000000000E+03               0
GRID*               5639               01.2000000000E+036.5000000000E+02+
*       3.6000000000E+03               0
GRID*               5640               09.0000000000E+026.5000000000E+02+
*       3.9000000000E+03               0
GRID*               5641               01.2000000000E+036.5000000000E+02+
*       3.0000000000E+03               0
GRID*               5642               09.0000000000E+026.5000000000E+02+
*       3.3000000000E+03               0
GRID*               5643               01.2000000000E+036.5000000000E+02+
*       2.4000000000E+03               0
GRID*               5644               09.0000000000E+026.5000000000E+02+
*       2.7000000000E+03               0
GRID*               5645               01.2000000000E+036.5000000000E+02+
*       1.8000000000E+03               0
GRID*               5646               09.0000000000E+026.5000000000E+02+
*       2.1000000000E+03               0
GRID*               5647               01.2000000000E+036.5000000000E+02+
*       1.2000000000E+03               0
GRID*               5648               09.0000000000E+026.5000000000E+02+
*       1.5000000000E+03               0
GRID*               5649               09.0000000000E+026.5000000000E+02+
*       9.0000000000E+02               0
GRID*               5650               06.0000000000E+026.5000000000E+02+
*       1.2000000000E+03               0
GRID*               5651               03.0000000000E+026.5000000000E+02+
*       9.0000000000E+02               0
GRID*               5652               0-3.000000000E+026.5000000000E+02+
*       9.0000000000E+02               0
GRID*               5653               01.9184653866E-136.5000000000E+02+
*       1.2000000000E+03               0
GRID*               5654               0-6.000000000E+026.5000000000E+02+
*       1.2000000000E+03               0
GRID*               5655               0-6.000000000E+026.5000000000E+02+
*       1.8000000000E+03               0
GRID*               5656               0-3.000000000E+026.5000000000E+02+
*       1.5000000000E+03               0
GRID*               5657               0-6.000000000E+026.5000000000E+02+
*       2.4000000000E+03               0
GRID*               5658               0-3.000000000E+026.5000000000E+02+
*       2.1000000000E+03               0
GRID*               5659               0-6.000000000E+026.5000000000E+02+
*       3.0000000000E+03               0
GRID*               5660               0-3.000000000E+026.5000000000E+02+
*       2.7000000000E+03               0
GRID*               5661               0-6.000000000E+026.5000000000E+02+
*       3.6000000000E+03               0
GRID*               5662               0-3.000000000E+026.5000000000E+02+
*       3.3000000000E+03               0
GRID*               5663               0-6.000000000E+026.5000000000E+02+
*       4.2000000000E+03               0
GRID*               5664               0-3.000000000E+026.5000000000E+02+
*       3.9000000000E+03               0
GRID*               5665               0-6.000000000E+026.5000000000E+02+
*       4.8000000000E+03               0
GRID*               5666               0-3.000000000E+026.5000000000E+02+
*       4.5000000000E+03               0
GRID*               5667               0-6.000000000E+026.5000000000E+02+
*       5.4000000000E+03               0
GRID*               5668               0-3.000000000E+026.5000000000E+02+
*       5.1000000000E+03               0
GRID*               5669               0-6.000000000E+026.5000000000E+02+
*       6.0000000000E+03               0
GRID*               5670               0-3.000000000E+026.5000000000E+02+
*       5.7000000000E+03               0
GRID*               5671               0-6.000000000E+026.5000000000E+02+
*       6.6000000000E+03               0
GRID*               5672               0-3.000000000E+026.5000000000E+02+
*       6.3000000000E+03               0
GRID*               5673               0-6.000000000E+026.5000000000E+02+
*       7.2000000000E+03               0
GRID*               5674               0-3.000000000E+026.5000000000E+02+
*       6.9000000000E+03               0
GRID*               5675               0-6.000000000E+026.5000000000E+02+
*       7.8000000000E+03               0
GRID*               5676               0-3.000000000E+026.5000000000E+02+
*       7.5000000000E+03               0
GRID*               5677               0-6.000000000E+026.5000000000E+02+
*       8.4000000000E+03               0
GRID*               5678               0-3.000000000E+026.5000000000E+02+
*       8.1000000000E+03               0
GRID*               5679               0-6.000000000E+026.5000000000E+02+
*       9.0000000000E+03               0
GRID*               5680               0-3.000000000E+026.5000000000E+02+
*       8.7000000000E+03               0
GRID*               5681               0-6.000000000E+026.5000000000E+02+
*       9.6000000000E+03               0
GRID*               5682               0-3.000000000E+026.5000000000E+02+
*       9.3000000000E+03               0
GRID*               5683               0-6.000000000E+026.5000000000E+02+
*       1.0200000000E+04               0
GRID*               5684               0-3.000000000E+026.5000000000E+02+
*       9.9000000000E+03               0
GRID*               5685               0-6.000000000E+026.5000000000E+02+
*       1.0800000000E+04               0
GRID*               5686               0-3.000000000E+026.5000000000E+02+
*       1.0500000000E+04               0
GRID*               5687               0-6.000000000E+026.5000000000E+02+
*       1.1400000000E+04               0
GRID*               5688               0-3.000000000E+026.5000000000E+02+
*       1.1100000000E+04               0
GRID*               5689               0-6.000000000E+026.5000000000E+02+
*       1.2000000000E+04               0
GRID*               5690               0-3.000000000E+026.5000000000E+02+
*       1.1700000000E+04               0
GRID*               5691               0-6.000000000E+026.5000000000E+02+
*       1.2600000000E+04               0
GRID*               5692               0-3.000000000E+026.5000000000E+02+
*       1.2300000000E+04               0
GRID*               5693               0-6.000000000E+026.5000000000E+02+
*       1.3200000000E+04               0
GRID*               5694               0-3.000000000E+026.5000000000E+02+
*       1.2900000000E+04               0
GRID*               5695               0-6.000000000E+026.5000000000E+02+
*       1.3800000000E+04               0
GRID*               5696               0-3.000000000E+026.5000000000E+02+
*       1.3500000000E+04               0
GRID*               5697               0-6.000000000E+026.5000000000E+02+
*       1.4400000000E+04               0
GRID*               5698               0-3.000000000E+026.5000000000E+02+
*       1.4100000000E+04               0
GRID*               5699               0-6.000000000E+026.5000000000E+02+
*       1.5000000000E+04               0
GRID*               5700               0-3.000000000E+026.5000000000E+02+
*       1.4700000000E+04               0
GRID*               5701               0-6.000000000E+026.5000000000E+02+
*       1.5600000000E+04               0
GRID*               5702               0-3.000000000E+026.5000000000E+02+
*       1.5300000000E+04               0
GRID*               5703               0-6.000000000E+026.5000000000E+02+
*       1.6200000000E+04               0
GRID*               5704               0-3.000000000E+026.5000000000E+02+
*       1.5900000000E+04               0
GRID*               5705               0-6.000000000E+026.5000000000E+02+
*       1.6800000000E+04               0
GRID*               5706               0-3.000000000E+026.5000000000E+02+
*       1.6500000000E+04               0
GRID*               5707               0-6.000000000E+026.5000000000E+02+
*       1.7400000000E+04               0
GRID*               5708               0-3.000000000E+026.5000000000E+02+
*       1.7100000000E+04               0
GRID*               5709               0-6.000000000E+026.5000000000E+02+
*       1.8000000000E+04               0
GRID*               5710               0-3.000000000E+026.5000000000E+02+
*       1.7700000000E+04               0
GRID*               5711               0-6.000000000E+026.5000000000E+02+
*       1.8600000000E+04               0
GRID*               5712               0-3.000000000E+026.5000000000E+02+
*       1.8300000000E+04               0
GRID*               5713               0-6.000000000E+026.5000000000E+02+
*       1.9200000000E+04               0
GRID*               5714               0-3.000000000E+026.5000000000E+02+
*       1.8900000000E+04               0
GRID*               5715               0-6.000000000E+026.5000000000E+02+
*       1.9800000000E+04               0
GRID*               5716               0-3.000000000E+026.5000000000E+02+
*       1.9500000000E+04               0
GRID*               5717               0-6.000000000E+026.5000000000E+02+
*       2.0400000000E+04               0
GRID*               5718               0-3.000000000E+026.5000000000E+02+
*       2.0100000000E+04               0
GRID*               5719               0-6.000000000E+026.5000000000E+02+
*       2.1000000000E+04               0
GRID*               5720               0-3.000000000E+026.5000000000E+02+
*       2.0700000000E+04               0
GRID*               5721               0-6.000000000E+026.5000000000E+02+
*       2.1600000000E+04               0
GRID*               5722               0-3.000000000E+026.5000000000E+02+
*       2.1300000000E+04               0
GRID*               5723               0-6.000000000E+026.5000000000E+02+
*       2.2200000000E+04               0
GRID*               5724               0-3.000000000E+026.5000000000E+02+
*       2.1900000000E+04               0
GRID*               5725               0-6.000000000E+026.5000000000E+02+
*       2.2800000000E+04               0
GRID*               5726               0-3.000000000E+026.5000000000E+02+
*       2.2500000000E+04               0
GRID*               5727               0-6.000000000E+026.5000000000E+02+
*       2.3400000000E+04               0
GRID*               5728               0-3.000000000E+026.5000000000E+02+
*       2.3100000000E+04               0
GRID*               5729               0-6.000000000E+026.5000000000E+02+
*       2.4000000000E+04               0
GRID*               5730               0-3.000000000E+026.5000000000E+02+
*       2.3700000000E+04               0
GRID*               5731               0-6.000000000E+026.5000000000E+02+
*       2.4600000000E+04               0
GRID*               5732               0-3.000000000E+026.5000000000E+02+
*       2.4300000000E+04               0
GRID*               5733               0-6.000000000E+026.5000000000E+02+
*       2.5200000000E+04               0
GRID*               5734               0-3.000000000E+026.5000000000E+02+
*       2.4900000000E+04               0
GRID*               5735               0-6.000000000E+026.5000000000E+02+
*       2.5800000000E+04               0
GRID*               5736               0-3.000000000E+026.5000000000E+02+
*       2.5500000000E+04               0
GRID*               5737               0-6.000000000E+026.5000000000E+02+
*       2.6400000000E+04               0
GRID*               5738               0-3.000000000E+026.5000000000E+02+
*       2.6100000000E+04               0
GRID*               5739               0-6.000000000E+026.5000000000E+02+
*       2.7000000000E+04               0
GRID*               5740               0-3.000000000E+026.5000000000E+02+
*       2.6700000000E+04               0
GRID*               5741               0-6.000000000E+026.5000000000E+02+
*       2.7600000000E+04               0
GRID*               5742               0-3.000000000E+026.5000000000E+02+
*       2.7300000000E+04               0
GRID*               5743               0-6.000000000E+026.5000000000E+02+
*       2.8200000000E+04               0
GRID*               5744               0-3.000000000E+026.5000000000E+02+
*       2.7900000000E+04               0
GRID*               5745               0-6.000000000E+026.5000000000E+02+
*       2.8800000000E+04               0
GRID*               5746               0-3.000000000E+026.5000000000E+02+
*       2.8500000000E+04               0
GRID*               5747               0-6.000000000E+026.5000000000E+02+
*       2.9400000000E+04               0
GRID*               5748               0-3.000000000E+026.5000000000E+02+
*       2.9100000000E+04               0
GRID*               5749               0-6.000000000E+026.5000000000E+02+
*       3.0000000000E+04               0
GRID*               5750               0-3.000000000E+026.5000000000E+02+
*       2.9700000000E+04               0
GRID*               5751               0-6.000000000E+026.5000000000E+02+
*       3.0600000000E+04               0
GRID*               5752               0-3.000000000E+026.5000000000E+02+
*       3.0300000000E+04               0
GRID*               5753               0-6.000000000E+026.5000000000E+02+
*       3.1200000000E+04               0
GRID*               5754               0-3.000000000E+026.5000000000E+02+
*       3.0900000000E+04               0
GRID*               5755               0-6.000000000E+026.5000000000E+02+
*       3.1800000000E+04               0
GRID*               5756               0-3.000000000E+026.5000000000E+02+
*       3.1500000000E+04               0
GRID*               5757               0-6.000000000E+026.5000000000E+02+
*       3.2400000000E+04               0
GRID*               5758               0-3.000000000E+026.5000000000E+02+
*       3.2100000000E+04               0
GRID*               5759               0-6.000000000E+026.5000000000E+02+
*       3.3000000000E+04               0
GRID*               5760               0-3.000000000E+026.5000000000E+02+
*       3.2700000000E+04               0
GRID*               5761               0-6.000000000E+026.5000000000E+02+
*       3.3600000000E+04               0
GRID*               5762               0-3.000000000E+026.5000000000E+02+
*       3.3300000000E+04               0
GRID*               5763               0-6.000000000E+026.5000000000E+02+
*       3.4200000000E+04               0
GRID*               5764               0-3.000000000E+026.5000000000E+02+
*       3.3900000000E+04               0
GRID*               5765               0-6.000000000E+026.5000000000E+02+
*       3.4800000000E+04               0
GRID*               5766               0-3.000000000E+026.5000000000E+02+
*       3.4500000000E+04               0
GRID*               5767               0-3.000000000E+026.5000000000E+02+
*       3.5100000000E+04               0
GRID*               5768               03.0000000000E+026.5000000000E+02+
*       3.5100000000E+04               0
GRID*               5769               0-1.882938250E-136.5000000000E+02+
*       3.4800000000E+04               0
GRID*               5770               06.0000000000E+026.5000000000E+02+
*       3.4800000000E+04               0
GRID*               5771               06.0000000000E+026.5000000000E+02+
*       3.4200000000E+04               0
GRID*               5772               03.0000000000E+026.5000000000E+02+
*       3.4500000000E+04               0
GRID*               5773               06.0000000000E+026.5000000000E+02+
*       3.3600000000E+04               0
GRID*               5774               03.0000000000E+026.5000000000E+02+
*       3.3900000000E+04               0
GRID*               5775               06.0000000000E+026.5000000000E+02+
*       3.3000000000E+04               0
GRID*               5776               03.0000000000E+026.5000000000E+02+
*       3.3300000000E+04               0
GRID*               5777               06.0000000000E+026.5000000000E+02+
*       3.2400000000E+04               0
GRID*               5778               03.0000000000E+026.5000000000E+02+
*       3.2700000000E+04               0
GRID*               5779               06.0000000000E+026.5000000000E+02+
*       3.1800000000E+04               0
GRID*               5780               03.0000000000E+026.5000000000E+02+
*       3.2100000000E+04               0
GRID*               5781               06.0000000000E+026.5000000000E+02+
*       3.1200000000E+04               0
GRID*               5782               03.0000000000E+026.5000000000E+02+
*       3.1500000000E+04               0
GRID*               5783               06.0000000000E+026.5000000000E+02+
*       3.0600000000E+04               0
GRID*               5784               03.0000000000E+026.5000000000E+02+
*       3.0900000000E+04               0
GRID*               5785               06.0000000000E+026.5000000000E+02+
*       3.0000000000E+04               0
GRID*               5786               03.0000000000E+026.5000000000E+02+
*       3.0300000000E+04               0
GRID*               5787               06.0000000000E+026.5000000000E+02+
*       2.9400000000E+04               0
GRID*               5788               03.0000000000E+026.5000000000E+02+
*       2.9700000000E+04               0
GRID*               5789               06.0000000000E+026.5000000000E+02+
*       2.8800000000E+04               0
GRID*               5790               03.0000000000E+026.5000000000E+02+
*       2.9100000000E+04               0
GRID*               5791               06.0000000000E+026.5000000000E+02+
*       2.8200000000E+04               0
GRID*               5792               03.0000000000E+026.5000000000E+02+
*       2.8500000000E+04               0
GRID*               5793               06.0000000000E+026.5000000000E+02+
*       2.7600000000E+04               0
GRID*               5794               03.0000000000E+026.5000000000E+02+
*       2.7900000000E+04               0
GRID*               5795               06.0000000000E+026.5000000000E+02+
*       2.7000000000E+04               0
GRID*               5796               03.0000000000E+026.5000000000E+02+
*       2.7300000000E+04               0
GRID*               5797               06.0000000000E+026.5000000000E+02+
*       2.6400000000E+04               0
GRID*               5798               03.0000000000E+026.5000000000E+02+
*       2.6700000000E+04               0
GRID*               5799               06.0000000000E+026.5000000000E+02+
*       2.5800000000E+04               0
GRID*               5800               03.0000000000E+026.5000000000E+02+
*       2.6100000000E+04               0
GRID*               5801               06.0000000000E+026.5000000000E+02+
*       2.5200000000E+04               0
GRID*               5802               03.0000000000E+026.5000000000E+02+
*       2.5500000000E+04               0
GRID*               5803               06.0000000000E+026.5000000000E+02+
*       2.4600000000E+04               0
GRID*               5804               03.0000000000E+026.5000000000E+02+
*       2.4900000000E+04               0
GRID*               5805               06.0000000000E+026.5000000000E+02+
*       2.4000000000E+04               0
GRID*               5806               03.0000000000E+026.5000000000E+02+
*       2.4300000000E+04               0
GRID*               5807               06.0000000000E+026.5000000000E+02+
*       2.3400000000E+04               0
GRID*               5808               03.0000000000E+026.5000000000E+02+
*       2.3700000000E+04               0
GRID*               5809               06.0000000000E+026.5000000000E+02+
*       2.2800000000E+04               0
GRID*               5810               03.0000000000E+026.5000000000E+02+
*       2.3100000000E+04               0
GRID*               5811               06.0000000000E+026.5000000000E+02+
*       2.2200000000E+04               0
GRID*               5812               03.0000000000E+026.5000000000E+02+
*       2.2500000000E+04               0
GRID*               5813               06.0000000000E+026.5000000000E+02+
*       2.1600000000E+04               0
GRID*               5814               03.0000000000E+026.5000000000E+02+
*       2.1900000000E+04               0
GRID*               5815               06.0000000000E+026.5000000000E+02+
*       2.1000000000E+04               0
GRID*               5816               03.0000000000E+026.5000000000E+02+
*       2.1300000000E+04               0
GRID*               5817               06.0000000000E+026.5000000000E+02+
*       2.0400000000E+04               0
GRID*               5818               03.0000000000E+026.5000000000E+02+
*       2.0700000000E+04               0
GRID*               5819               06.0000000000E+026.5000000000E+02+
*       1.9800000000E+04               0
GRID*               5820               03.0000000000E+026.5000000000E+02+
*       2.0100000000E+04               0
GRID*               5821               06.0000000000E+026.5000000000E+02+
*       1.9200000000E+04               0
GRID*               5822               03.0000000000E+026.5000000000E+02+
*       1.9500000000E+04               0
GRID*               5823               06.0000000000E+026.5000000000E+02+
*       1.8600000000E+04               0
GRID*               5824               03.0000000000E+026.5000000000E+02+
*       1.8900000000E+04               0
GRID*               5825               06.0000000000E+026.5000000000E+02+
*       1.8000000000E+04               0
GRID*               5826               03.0000000000E+026.5000000000E+02+
*       1.8300000000E+04               0
GRID*               5827               06.0000000000E+026.5000000000E+02+
*       1.7400000000E+04               0
GRID*               5828               03.0000000000E+026.5000000000E+02+
*       1.7700000000E+04               0
GRID*               5829               06.0000000000E+026.5000000000E+02+
*       1.6800000000E+04               0
GRID*               5830               03.0000000000E+026.5000000000E+02+
*       1.7100000000E+04               0
GRID*               5831               06.0000000000E+026.5000000000E+02+
*       1.6200000000E+04               0
GRID*               5832               03.0000000000E+026.5000000000E+02+
*       1.6500000000E+04               0
GRID*               5833               06.0000000000E+026.5000000000E+02+
*       1.5600000000E+04               0
GRID*               5834               03.0000000000E+026.5000000000E+02+
*       1.5900000000E+04               0
GRID*               5835               06.0000000000E+026.5000000000E+02+
*       1.5000000000E+04               0
GRID*               5836               03.0000000000E+026.5000000000E+02+
*       1.5300000000E+04               0
GRID*               5837               06.0000000000E+026.5000000000E+02+
*       1.4400000000E+04               0
GRID*               5838               03.0000000000E+026.5000000000E+02+
*       1.4700000000E+04               0
GRID*               5839               06.0000000000E+026.5000000000E+02+
*       1.3800000000E+04               0
GRID*               5840               03.0000000000E+026.5000000000E+02+
*       1.4100000000E+04               0
GRID*               5841               06.0000000000E+026.5000000000E+02+
*       1.3200000000E+04               0
GRID*               5842               03.0000000000E+026.5000000000E+02+
*       1.3500000000E+04               0
GRID*               5843               06.0000000000E+026.5000000000E+02+
*       1.2600000000E+04               0
GRID*               5844               03.0000000000E+026.5000000000E+02+
*       1.2900000000E+04               0
GRID*               5845               06.0000000000E+026.5000000000E+02+
*       1.2000000000E+04               0
GRID*               5846               03.0000000000E+026.5000000000E+02+
*       1.2300000000E+04               0
GRID*               5847               06.0000000000E+026.5000000000E+02+
*       1.1400000000E+04               0
GRID*               5848               03.0000000000E+026.5000000000E+02+
*       1.1700000000E+04               0
GRID*               5849               06.0000000000E+026.5000000000E+02+
*       1.0800000000E+04               0
GRID*               5850               03.0000000000E+026.5000000000E+02+
*       1.1100000000E+04               0
GRID*               5851               06.0000000000E+026.5000000000E+02+
*       1.0200000000E+04               0
GRID*               5852               03.0000000000E+026.5000000000E+02+
*       1.0500000000E+04               0
GRID*               5853               06.0000000000E+026.5000000000E+02+
*       9.6000000000E+03               0
GRID*               5854               03.0000000000E+026.5000000000E+02+
*       9.9000000000E+03               0
GRID*               5855               06.0000000000E+026.5000000000E+02+
*       9.0000000000E+03               0
GRID*               5856               03.0000000000E+026.5000000000E+02+
*       9.3000000000E+03               0
GRID*               5857               06.0000000000E+026.5000000000E+02+
*       8.4000000000E+03               0
GRID*               5858               03.0000000000E+026.5000000000E+02+
*       8.7000000000E+03               0
GRID*               5859               06.0000000000E+026.5000000000E+02+
*       7.8000000000E+03               0
GRID*               5860               03.0000000000E+026.5000000000E+02+
*       8.1000000000E+03               0
GRID*               5861               06.0000000000E+026.5000000000E+02+
*       7.2000000000E+03               0
GRID*               5862               03.0000000000E+026.5000000000E+02+
*       7.5000000000E+03               0
GRID*               5863               06.0000000000E+026.5000000000E+02+
*       6.6000000000E+03               0
GRID*               5864               03.0000000000E+026.5000000000E+02+
*       6.9000000000E+03               0
GRID*               5865               06.0000000000E+026.5000000000E+02+
*       6.0000000000E+03               0
GRID*               5866               03.0000000000E+026.5000000000E+02+
*       6.3000000000E+03               0
GRID*               5867               06.0000000000E+026.5000000000E+02+
*       5.4000000000E+03               0
GRID*               5868               03.0000000000E+026.5000000000E+02+
*       5.7000000000E+03               0
GRID*               5869               06.0000000000E+026.5000000000E+02+
*       4.8000000000E+03               0
GRID*               5870               03.0000000000E+026.5000000000E+02+
*       5.1000000000E+03               0
GRID*               5871               06.0000000000E+026.5000000000E+02+
*       4.2000000000E+03               0
GRID*               5872               03.0000000000E+026.5000000000E+02+
*       4.5000000000E+03               0
GRID*               5873               06.0000000000E+026.5000000000E+02+
*       3.6000000000E+03               0
GRID*               5874               03.0000000000E+026.5000000000E+02+
*       3.9000000000E+03               0
GRID*               5875               06.0000000000E+026.5000000000E+02+
*       3.0000000000E+03               0
GRID*               5876               03.0000000000E+026.5000000000E+02+
*       3.3000000000E+03               0
GRID*               5877               06.0000000000E+026.5000000000E+02+
*       2.4000000000E+03               0
GRID*               5878               03.0000000000E+026.5000000000E+02+
*       2.7000000000E+03               0
GRID*               5879               06.0000000000E+026.5000000000E+02+
*       1.8000000000E+03               0
GRID*               5880               03.0000000000E+026.5000000000E+02+
*       2.1000000000E+03               0
GRID*               5881               03.0000000000E+026.5000000000E+02+
*       1.5000000000E+03               0
GRID*               5882               00.0000000000E+006.5000000000E+02+
*       3.4200000000E+04               0
GRID*               5883               03.5527136788E-156.5000000000E+02+
*       3.3000000000E+04               0
GRID*               5884               02.1316282073E-146.5000000000E+02+
*       3.3600000000E+04               0
GRID*               5885               01.2123635429E-136.5000000000E+02+
*       3.0600000000E+04               0
GRID*               5886               0-5.240252676E-146.5000000000E+02+
*       3.1200000000E+04               0
GRID*               5887               01.0658141036E-146.5000000000E+02+
*       3.1800000000E+04               0
GRID*               5888               0-2.842170943E-146.5000000000E+02+
*       3.2400000000E+04               0
GRID*               5889               0-2.131628207E-146.5000000000E+02+
*       2.6400000000E+04               0
GRID*               5890               0-3.552713679E-156.5000000000E+02+
*       2.7000000000E+04               0
GRID*               5891               0-1.065814104E-146.5000000000E+02+
*       2.8200000000E+04               0
GRID*               5892               02.8421709430E-146.5000000000E+02+
*       2.7600000000E+04               0
GRID*               5893               00.0000000000E+006.5000000000E+02+
*       3.0000000000E+04               0
GRID*               5894               0-1.212363543E-136.5000000000E+02+
*       2.9400000000E+04               0
GRID*               5895               05.2402526762E-146.5000000000E+02+
*       2.8800000000E+04               0
GRID*               5896               0-6.163958233E-136.5000000000E+02+
*       1.9800000000E+04               0
GRID*               5897               0-4.103384299E-136.5000000000E+02+
*       1.9200000000E+04               0
GRID*               5898               0-2.951310307E-136.5000000000E+02+
*       1.8000000000E+04               0
GRID*               5899               0-4.534150833E-136.5000000000E+02+
*       1.8600000000E+04               0
GRID*               5900               00.0000000000E+006.5000000000E+02+
*       2.2200000000E+04               0
GRID*               5901               0-1.776356839E-136.5000000000E+02+
*       2.1600000000E+04               0
GRID*               5902               03.5527136788E-156.5000000000E+02+
*       2.1000000000E+04               0
GRID*               5903               0-3.552713679E-156.5000000000E+02+
*       2.0400000000E+04               0
GRID*               5904               0-1.882938250E-136.5000000000E+02+
*       2.2800000000E+04               0
GRID*               5905               00.0000000000E+006.5000000000E+02+
*       2.4000000000E+04               0
GRID*               5906               0-1.829647545E-136.5000000000E+02+
*       2.3400000000E+04               0
GRID*               5907               00.0000000000E+006.5000000000E+02+
*       2.5800000000E+04               0
GRID*               5908               01.8829382498E-136.5000000000E+02+
*       2.5200000000E+04               0
GRID*               5909               01.8296475446E-136.5000000000E+02+
*       2.4600000000E+04               0
GRID*               5910               03.9079850467E-146.5000000000E+02+
*       3.6000000000E+03               0
GRID*               5911               00.0000000000E+006.5000000000E+02+
*       4.2000000000E+03               0
GRID*               5912               0-1.141309269E-136.5000000000E+02+
*       5.4000000000E+03               0
GRID*               5913               06.3060667799E-146.5000000000E+02+
*       4.8000000000E+03               0
GRID*               5914               0-7.815970093E-146.5000000000E+02+
*       1.8000000000E+03               0
GRID*               5915               0-8.881784197E-146.5000000000E+02+
*       2.4000000000E+03               0
GRID*               5916               0-1.918465387E-136.5000000000E+02+
*       3.0000000000E+03               0
GRID*               5917               01.7763568394E-146.5000000000E+02+
*       9.6000000000E+03               0
GRID*               5918               00.0000000000E+006.5000000000E+02+
*       9.0000000000E+03               0
GRID*               5919               07.1054273576E-156.5000000000E+02+
*       7.8000000000E+03               0
GRID*               5920               0-3.197442311E-146.5000000000E+02+
*       8.4000000000E+03               0
GRID*               5921               00.0000000000E+006.5000000000E+02+
*       6.0000000000E+03               0
GRID*               5922               01.1945999745E-136.5000000000E+02+
*       6.6000000000E+03               0
GRID*               5923               0-5.595524044E-146.5000000000E+02+
*       7.2000000000E+03               0
GRID*               5924               00.0000000000E+006.5000000000E+02+
*       1.3800000000E+04               0
GRID*               5925               0-2.131628207E-146.5000000000E+02+
*       1.4400000000E+04               0
GRID*               5926               02.8421709430E-146.5000000000E+02+
*       1.5600000000E+04               0
GRID*               5927               0-3.552713679E-156.5000000000E+02+
*       1.5000000000E+04               0
GRID*               5928               0-1.874056466E-136.5000000000E+02+
*       1.7400000000E+04               0
GRID*               5929               05.2402526762E-146.5000000000E+02+
*       1.6800000000E+04               0
GRID*               5930               0-1.065814104E-146.5000000000E+02+
*       1.6200000000E+04               0
GRID*               5931               0-3.552713679E-156.5000000000E+02+
*       1.0200000000E+04               0
GRID*               5932               0-1.847411113E-136.5000000000E+02+
*       1.1400000000E+04               0
GRID*               5933               0-3.019806627E-136.5000000000E+02+
*       1.0800000000E+04               0
GRID*               5934               01.8829382498E-136.5000000000E+02+
*       1.3200000000E+04               0
GRID*               5935               01.8296475446E-136.5000000000E+02+
*       1.2600000000E+04               0
GRID*               5936               00.0000000000E+006.5000000000E+02+
*       1.2000000000E+04               0
GRID*               4328               0-1.500000000E+033.4999999428E+02+
*       6.0000000000E+02               0
GRID*               4329               0-1.500000000E+033.4999999428E+02+
*       1.2000000000E+03               0
GRID*               4330               0-1.500000000E+033.4999999428E+02+
*       1.8000000000E+03               0
GRID*               4331               0-1.500000000E+033.4999999428E+02+
*       2.4000000000E+03               0
GRID*               4332               0-1.500000000E+033.4999999428E+02+
*       3.0000000000E+03               0
GRID*               4333               0-1.500000000E+033.4999999428E+02+
*       3.6000000000E+03               0
GRID*               4334               0-1.500000000E+033.4999999428E+02+
*       4.2000000000E+03               0
GRID*               4335               0-1.500000000E+033.4999999428E+02+
*       4.8000000000E+03               0
GRID*               4336               0-1.500000000E+033.4999999428E+02+
*       5.4000000000E+03               0
GRID*               4337               0-1.500000000E+033.4999999428E+02+
*       6.0000000000E+03               0
GRID*               4338               0-1.500000000E+033.4999999428E+02+
*       6.6000000000E+03               0
GRID*               4339               0-1.500000000E+033.4999999428E+02+
*       7.2000000000E+03               0
GRID*               4340               0-1.500000000E+033.4999999428E+02+
*       7.8000000000E+03               0
GRID*               4341               0-1.500000000E+033.4999999428E+02+
*       8.4000000000E+03               0
GRID*               4342               0-1.500000000E+033.4999999428E+02+
*       9.0000000000E+03               0
GRID*               4343               0-1.500000000E+033.4999999428E+02+
*       9.6000000000E+03               0
GRID*               4344               0-1.500000000E+033.4999999428E+02+
*       1.0200000000E+04               0
GRID*               4345               0-1.500000000E+033.4999999428E+02+
*       1.0800000000E+04               0
GRID*               4346               0-1.500000000E+033.4999999428E+02+
*       1.1400000000E+04               0
GRID*               4347               0-1.500000000E+033.4999999428E+02+
*       1.2000000000E+04               0
GRID*               4348               0-1.500000000E+033.4999999428E+02+
*       1.2600000000E+04               0
GRID*               4349               0-1.500000000E+033.4999999428E+02+
*       1.3200000000E+04               0
GRID*               4350               0-1.500000000E+033.4999999428E+02+
*       1.3800000000E+04               0
GRID*               4351               0-1.500000000E+033.4999999428E+02+
*       1.4400000000E+04               0
GRID*               4352               0-1.500000000E+033.4999999428E+02+
*       1.5000000000E+04               0
GRID*               4353               0-1.500000000E+033.4999999428E+02+
*       1.5600000000E+04               0
GRID*               4354               0-1.500000000E+033.4999999428E+02+
*       1.6200000000E+04               0
GRID*               4355               0-1.500000000E+033.4999999428E+02+
*       1.6800000000E+04               0
GRID*               4356               0-1.500000000E+033.4999999428E+02+
*       1.7400000000E+04               0
GRID*               4357               0-1.500000000E+033.4999999428E+02+
*       1.8000000000E+04               0
GRID*               4358               0-1.500000000E+033.4999999428E+02+
*       1.8600000000E+04               0
GRID*               4359               0-1.500000000E+033.4999999428E+02+
*       1.9200000000E+04               0
GRID*               4360               0-1.500000000E+033.4999999428E+02+
*       1.9800000000E+04               0
GRID*               4361               0-1.500000000E+033.4999999428E+02+
*       2.0400000000E+04               0
GRID*               4362               0-1.500000000E+033.4999999428E+02+
*       2.1000000000E+04               0
GRID*               4363               0-1.500000000E+033.4999999428E+02+
*       2.1600000000E+04               0
GRID*               4364               0-1.500000000E+033.4999999428E+02+
*       2.2200000000E+04               0
GRID*               4365               0-1.500000000E+033.4999999428E+02+
*       2.2800000000E+04               0
GRID*               4366               0-1.500000000E+033.4999999428E+02+
*       2.3400000000E+04               0
GRID*               4367               0-1.500000000E+033.4999999428E+02+
*       2.4000000000E+04               0
GRID*               4368               0-1.500000000E+033.4999999428E+02+
*       2.4600000000E+04               0
GRID*               4369               0-1.500000000E+033.4999999428E+02+
*       2.5200000000E+04               0
GRID*               4370               0-1.500000000E+033.4999999428E+02+
*       2.5800000000E+04               0
GRID*               4371               0-1.500000000E+033.4999999428E+02+
*       2.6400000000E+04               0
GRID*               4372               0-1.500000000E+033.4999999428E+02+
*       2.7000000000E+04               0
GRID*               4373               0-1.500000000E+033.4999999428E+02+
*       2.7600000000E+04               0
GRID*               4374               0-1.500000000E+033.4999999428E+02+
*       2.8200000000E+04               0
GRID*               4375               0-1.500000000E+033.4999999428E+02+
*       2.8800000000E+04               0
GRID*               4376               0-1.500000000E+033.4999999428E+02+
*       2.9400000000E+04               0
GRID*               4377               0-1.500000000E+033.4999999428E+02+
*       3.0000000000E+04               0
GRID*               4378               0-1.500000000E+033.4999999428E+02+
*       3.0600000000E+04               0
GRID*               4379               0-1.500000000E+033.4999999428E+02+
*       3.1200000000E+04               0
GRID*               4380               0-1.500000000E+033.4999999428E+02+
*       3.1800000000E+04               0
GRID*               4381               0-1.500000000E+033.4999999428E+02+
*       3.2400000000E+04               0
GRID*               4382               0-1.500000000E+033.4999999428E+02+
*       3.3000000000E+04               0
GRID*               4383               0-1.500000000E+033.4999999428E+02+
*       3.3600000000E+04               0
GRID*               4384               0-1.500000000E+033.4999999428E+02+
*       3.4200000000E+04               0
GRID*               4385               0-1.500000000E+033.4999999428E+02+
*       3.4800000000E+04               0
GRID*               4386               0-1.500000000E+033.4999999428E+02+
*       3.5400000000E+04               0
GRID*               5937               01.5000000000E+033.4999999428E+02+
*       6.0000000000E+02               0
GRID*               5938               01.5000000000E+033.4999999428E+02+
*       1.2000000000E+03               0
GRID*               5939               01.5000000000E+033.4999999428E+02+
*       1.8000000000E+03               0
GRID*               5940               01.5000000000E+033.4999999428E+02+
*       2.4000000000E+03               0
GRID*               5941               01.5000000000E+033.4999999428E+02+
*       3.0000000000E+03               0
GRID*               5942               01.5000000000E+033.4999999428E+02+
*       3.6000000000E+03               0
GRID*               5943               01.5000000000E+033.4999999428E+02+
*       4.2000000000E+03               0
GRID*               5944               01.5000000000E+033.4999999428E+02+
*       4.8000000000E+03               0
GRID*               5945               01.5000000000E+033.4999999428E+02+
*       5.4000000000E+03               0
GRID*               5946               01.5000000000E+033.4999999428E+02+
*       6.0000000000E+03               0
GRID*               5947               01.5000000000E+033.4999999428E+02+
*       6.6000000000E+03               0
GRID*               5948               01.5000000000E+033.4999999428E+02+
*       7.2000000000E+03               0
GRID*               5949               01.5000000000E+033.4999999428E+02+
*       7.8000000000E+03               0
GRID*               5950               01.5000000000E+033.4999999428E+02+
*       8.4000000000E+03               0
GRID*               5951               01.5000000000E+033.4999999428E+02+
*       9.0000000000E+03               0
GRID*               5952               01.5000000000E+033.4999999428E+02+
*       9.6000000000E+03               0
GRID*               5953               01.5000000000E+033.4999999428E+02+
*       1.0200000000E+04               0
GRID*               5954               01.5000000000E+033.4999999428E+02+
*       1.0800000000E+04               0
GRID*               5955               01.5000000000E+033.4999999428E+02+
*       1.1400000000E+04               0
GRID*               5956               01.5000000000E+033.4999999428E+02+
*       1.2000000000E+04               0
GRID*               5957               01.5000000000E+033.4999999428E+02+
*       1.2600000000E+04               0
GRID*               5958               01.5000000000E+033.4999999428E+02+
*       1.3200000000E+04               0
GRID*               5959               01.5000000000E+033.4999999428E+02+
*       1.3800000000E+04               0
GRID*               5960               01.5000000000E+033.4999999428E+02+
*       1.4400000000E+04               0
GRID*               5961               01.5000000000E+033.4999999428E+02+
*       1.5000000000E+04               0
GRID*               5962               01.5000000000E+033.4999999428E+02+
*       1.5600000000E+04               0
GRID*               5963               01.5000000000E+033.4999999428E+02+
*       1.6200000000E+04               0
GRID*               5964               01.5000000000E+033.4999999428E+02+
*       1.6800000000E+04               0
GRID*               5965               01.5000000000E+033.4999999428E+02+
*       1.7400000000E+04               0
GRID*               5966               01.5000000000E+033.4999999428E+02+
*       1.8000000000E+04               0
GRID*               5967               01.5000000000E+033.4999999428E+02+
*       1.8600000000E+04               0
GRID*               5968               01.5000000000E+033.4999999428E+02+
*       1.9200000000E+04               0
GRID*               5969               01.5000000000E+033.4999999428E+02+
*       1.9800000000E+04               0
GRID*               5970               01.5000000000E+033.4999999428E+02+
*       2.0400000000E+04               0
GRID*               5971               01.5000000000E+033.4999999428E+02+
*       2.1000000000E+04               0
GRID*               5972               01.5000000000E+033.4999999428E+02+
*       2.1600000000E+04               0
GRID*               5973               01.5000000000E+033.4999999428E+02+
*       2.2200000000E+04               0
GRID*               5974               01.5000000000E+033.4999999428E+02+
*       2.2800000000E+04               0
GRID*               5975               01.5000000000E+033.4999999428E+02+
*       2.3400000000E+04               0
GRID*               5976               01.5000000000E+033.4999999428E+02+
*       2.4000000000E+04               0
GRID*               5977               01.5000000000E+033.4999999428E+02+
*       2.4600000000E+04               0
GRID*               5978               01.5000000000E+033.4999999428E+02+
*       2.5200000000E+04               0
GRID*               5979               01.5000000000E+033.4999999428E+02+
*       2.5800000000E+04               0
GRID*               5980               01.5000000000E+033.4999999428E+02+
*       2.6400000000E+04               0
GRID*               5981               01.5000000000E+033.4999999428E+02+
*       2.7000000000E+04               0
GRID*               5982               01.5000000000E+033.4999999428E+02+
*       2.7600000000E+04               0
GRID*               5983               01.5000000000E+033.4999999428E+02+
*       2.8200000000E+04               0
GRID*               5984               01.5000000000E+033.4999999428E+02+
*       2.8800000000E+04               0
GRID*               5985               01.5000000000E+033.4999999428E+02+
*       2.9400000000E+04               0
GRID*               5986               01.5000000000E+033.4999999428E+02+
*       3.0000000000E+04               0
GRID*               5987               01.5000000000E+033.4999999428E+02+
*       3.0600000000E+04               0
GRID*               5988               01.5000000000E+033.4999999428E+02+
*       3.1200000000E+04               0
GRID*               5989               01.5000000000E+033.4999999428E+02+
*       3.1800000000E+04               0
GRID*               5990               01.5000000000E+033.4999999428E+02+
*       3.2400000000E+04               0
GRID*               5991               01.5000000000E+033.4999999428E+02+
*       3.3000000000E+04               0
GRID*               5992               01.5000000000E+033.4999999428E+02+
*       3.3600000000E+04               0
GRID*               5993               01.5000000000E+033.4999999428E+02+
*       3.4200000000E+04               0
GRID*               5994               01.5000000000E+033.4999999428E+02+
*       3.4800000000E+04               0
GRID*               5995               01.5000000000E+033.4999999428E+02+
*       3.5400000000E+04               0
GRID*               5158               0-9.000000000E+023.4999999428E+02+
*       1.1652900866E-12               0
GRID*               5159               0-3.000000000E+023.4999999428E+02+
*       1.1652900866E-12               0
GRID*               5160               03.0000000000E+023.4999999428E+02+
*       1.1652900866E-12               0
GRID*               5161               09.0000000000E+023.4999999428E+02+
*       1.1652900866E-12               0
GRID*               5162               0-9.000000000E+023.4999999428E+02+
*       3.6000000000E+04               0
GRID*               5163               0-3.000000000E+023.4999999428E+02+
*       3.6000000000E+04               0
GRID*               5164               03.0000000000E+023.4999999428E+02+
*       3.6000000000E+04               0
GRID*               5165               09.0000000000E+023.4999999428E+02+
*       3.6000000000E+04               0
GRID*               4092               09.0000000000E+023.4999999428E+02+
*       6.0000000000E+02               0
GRID*               4093               03.0000000000E+023.4999999428E+02+
*       6.0000000000E+02               0
GRID*               4094               0-3.000000000E+023.4999999428E+02+
*       6.0000000000E+02               0
GRID*               4095               0-9.000000000E+023.4999999428E+02+
*       6.0000000000E+02               0
GRID*               4096               0-9.000000000E+023.4999999428E+02+
*       1.2000000000E+03               0
GRID*               4097               0-9.000000000E+023.4999999428E+02+
*       1.8000000000E+03               0
GRID*               4098               0-9.000000000E+023.4999999428E+02+
*       2.4000000000E+03               0
GRID*               4099               0-9.000000000E+023.4999999428E+02+
*       3.0000000000E+03               0
GRID*               4100               0-9.000000000E+023.4999999428E+02+
*       3.6000000000E+03               0
GRID*               4101               0-9.000000000E+023.4999999428E+02+
*       4.2000000000E+03               0
GRID*               4102               0-9.000000000E+023.4999999428E+02+
*       4.8000000000E+03               0
GRID*               4103               0-9.000000000E+023.4999999428E+02+
*       5.4000000000E+03               0
GRID*               4104               0-9.000000000E+023.4999999428E+02+
*       6.0000000000E+03               0
GRID*               4105               0-9.000000000E+023.4999999428E+02+
*       6.6000000000E+03               0
GRID*               4106               0-9.000000000E+023.4999999428E+02+
*       7.2000000000E+03               0
GRID*               4107               0-9.000000000E+023.4999999428E+02+
*       7.8000000000E+03               0
GRID*               4108               0-9.000000000E+023.4999999428E+02+
*       8.4000000000E+03               0
GRID*               4109               0-9.000000000E+023.4999999428E+02+
*       9.0000000000E+03               0
GRID*               4110               0-9.000000000E+023.4999999428E+02+
*       9.6000002474E+03               0
GRID*               4111               0-9.000000000E+023.4999999428E+02+
*       1.0200000000E+04               0
GRID*               4112               0-9.000000000E+023.4999999428E+02+
*       1.0800000000E+04               0
GRID*               4113               0-9.000000000E+023.4999999428E+02+
*       1.1400000000E+04               0
GRID*               4114               0-9.000000000E+023.4999999428E+02+
*       1.2000000000E+04               0
GRID*               4115               0-9.000000000E+023.4999999428E+02+
*       1.2600000000E+04               0
GRID*               4116               0-9.000000000E+023.4999999428E+02+
*       1.3200000000E+04               0
GRID*               4117               0-9.000000000E+023.4999999428E+02+
*       1.3800000000E+04               0
GRID*               4118               0-9.000000000E+023.4999999428E+02+
*       1.4400000000E+04               0
GRID*               4119               0-9.000000000E+023.4999999428E+02+
*       1.5000000000E+04               0
GRID*               4120               0-9.000000000E+023.4999999428E+02+
*       1.5600000000E+04               0
GRID*               4121               0-9.000000000E+023.4999999428E+02+
*       1.6200000000E+04               0
GRID*               4122               0-9.000000000E+023.4999999428E+02+
*       1.6800000000E+04               0
GRID*               4123               0-9.000000000E+023.4999999428E+02+
*       1.7400000000E+04               0
GRID*               4124               0-9.000000000E+023.4999999428E+02+
*       1.8000000000E+04               0
GRID*               4125               0-9.000000000E+023.4999999428E+02+
*       1.8600000000E+04               0
GRID*               4126               0-9.000000000E+023.4999999428E+02+
*       1.9200000000E+04               0
GRID*               4127               0-9.000000000E+023.4999999428E+02+
*       1.9800000000E+04               0
GRID*               4128               0-9.000000000E+023.4999999428E+02+
*       2.0400000000E+04               0
GRID*               4129               0-9.000000000E+023.4999999428E+02+
*       2.1000000000E+04               0
GRID*               4130               0-9.000000000E+023.4999999428E+02+
*       2.1600000000E+04               0
GRID*               4131               0-9.000000000E+023.4999999428E+02+
*       2.2200000000E+04               0
GRID*               4132               0-9.000000000E+023.4999999428E+02+
*       2.2800000000E+04               0
GRID*               4133               0-9.000000000E+023.4999999428E+02+
*       2.3400000000E+04               0
GRID*               4134               0-9.000000000E+023.4999999428E+02+
*       2.4000000000E+04               0
GRID*               4135               0-9.000000000E+023.4999999428E+02+
*       2.4600000000E+04               0
GRID*               4136               0-9.000000000E+023.4999999428E+02+
*       2.5200000000E+04               0
GRID*               4137               0-9.000000000E+023.4999999428E+02+
*       2.5800000000E+04               0
GRID*               4138               0-9.000000000E+023.4999999428E+02+
*       2.6400000000E+04               0
GRID*               4139               0-9.000000000E+023.4999999428E+02+
*       2.7000000000E+04               0
GRID*               4140               0-9.000000000E+023.4999999428E+02+
*       2.7600000000E+04               0
GRID*               4141               0-9.000000000E+023.4999999428E+02+
*       2.8200000000E+04               0
GRID*               4142               0-9.000000000E+023.4999999428E+02+
*       2.8800000000E+04               0
GRID*               4143               0-9.000000000E+023.4999999428E+02+
*       2.9400000000E+04               0
GRID*               4144               0-9.000000000E+023.4999999428E+02+
*       3.0000000000E+04               0
GRID*               4145               0-9.000000000E+023.4999999428E+02+
*       3.0600000000E+04               0
GRID*               4146               0-9.000000000E+023.4999999428E+02+
*       3.1200000000E+04               0
GRID*               4147               0-9.000000000E+023.4999999428E+02+
*       3.1800000000E+04               0
GRID*               4148               0-9.000000000E+023.4999999428E+02+
*       3.2400000000E+04               0
GRID*               4149               0-9.000000000E+023.4999999428E+02+
*       3.3000000000E+04               0
GRID*               4150               0-9.000000618E+023.4999999428E+02+
*       3.3600000495E+04               0
GRID*               4151               0-9.000000000E+023.4999999428E+02+
*       3.4200000000E+04               0
GRID*               4152               0-9.000000000E+023.4999999428E+02+
*       3.4800000000E+04               0
GRID*               4153               0-9.000000000E+023.4999999428E+02+
*       3.5400000000E+04               0
GRID*               4154               0-3.000000000E+023.4999999428E+02+
*       3.5400000000E+04               0
GRID*               4155               03.0000000000E+023.4999999428E+02+
*       3.5400000000E+04               0
GRID*               4156               09.0000000000E+023.4999999428E+02+
*       3.5400000000E+04               0
GRID*               4157               09.0000000000E+023.4999999428E+02+
*       3.4800000000E+04               0
GRID*               4158               09.0000000000E+023.4999999428E+02+
*       3.4200000000E+04               0
GRID*               4159               09.0000000000E+023.4999999428E+02+
*       3.3600000000E+04               0
GRID*               4160               09.0000000000E+023.4999999428E+02+
*       3.3000000000E+04               0
GRID*               4161               09.0000000000E+023.4999999428E+02+
*       3.2400000000E+04               0
GRID*               4162               09.0000000000E+023.4999999428E+02+
*       3.1800000000E+04               0
GRID*               4163               09.0000000000E+023.4999999428E+02+
*       3.1200000000E+04               0
GRID*               4164               09.0000000000E+023.4999999428E+02+
*       3.0600000000E+04               0
GRID*               4165               09.0000000000E+023.4999999428E+02+
*       3.0000000000E+04               0
GRID*               4166               09.0000000000E+023.4999999428E+02+
*       2.9400000000E+04               0
GRID*               4167               09.0000000000E+023.4999999428E+02+
*       2.8800000000E+04               0
GRID*               4168               09.0000000000E+023.4999999428E+02+
*       2.8200000000E+04               0
GRID*               4169               09.0000000000E+023.4999999428E+02+
*       2.7600000000E+04               0
GRID*               4170               09.0000000000E+023.4999999428E+02+
*       2.7000000000E+04               0
GRID*               4171               09.0000000000E+023.4999999428E+02+
*       2.6400000000E+04               0
GRID*               4172               09.0000000000E+023.4999999428E+02+
*       2.5800000000E+04               0
GRID*               4173               09.0000000000E+023.4999999428E+02+
*       2.5200000000E+04               0
GRID*               4174               09.0000000000E+023.4999999428E+02+
*       2.4600000000E+04               0
GRID*               4175               09.0000000000E+023.4999999428E+02+
*       2.4000000000E+04               0
GRID*               4176               09.0000000000E+023.4999999428E+02+
*       2.3400000000E+04               0
GRID*               4177               09.0000000000E+023.4999999428E+02+
*       2.2800000000E+04               0
GRID*               4178               09.0000000000E+023.4999999428E+02+
*       2.2200000000E+04               0
GRID*               4179               09.0000000000E+023.4999999428E+02+
*       2.1600000000E+04               0
GRID*               4180               09.0000000000E+023.4999999428E+02+
*       2.1000000000E+04               0
GRID*               4181               09.0000000000E+023.4999999428E+02+
*       2.0400000000E+04               0
GRID*               4182               09.0000000000E+023.4999999428E+02+
*       1.9800000000E+04               0
GRID*               4183               09.0000000000E+023.4999999428E+02+
*       1.9200000000E+04               0
GRID*               4184               09.0000000000E+023.4999999428E+02+
*       1.8600000000E+04               0
GRID*               4185               09.0000000000E+023.4999999428E+02+
*       1.8000000000E+04               0
GRID*               4186               09.0000000000E+023.4999999428E+02+
*       1.7400000000E+04               0
GRID*               4187               09.0000000000E+023.4999999428E+02+
*       1.6800000000E+04               0
GRID*               4188               09.0000000000E+023.4999999428E+02+
*       1.6200000000E+04               0
GRID*               4189               09.0000000000E+023.4999999428E+02+
*       1.5600000000E+04               0
GRID*               4190               09.0000000000E+023.4999999428E+02+
*       1.5000000000E+04               0
GRID*               4191               09.0000000000E+023.4999999428E+02+
*       1.4400000495E+04               0
GRID*               4192               09.0000000000E+023.4999999428E+02+
*       1.3800000000E+04               0
GRID*               4193               09.0000000000E+023.4999999428E+02+
*       1.3200000000E+04               0
GRID*               4194               09.0000000000E+023.4999999428E+02+
*       1.2600000000E+04               0
GRID*               4195               09.0000000000E+023.4999999428E+02+
*       1.2000000000E+04               0
GRID*               4196               09.0000000000E+023.4999999428E+02+
*       1.1400000000E+04               0
GRID*               4197               09.0000000000E+023.4999999428E+02+
*       1.0800000000E+04               0
GRID*               4198               09.0000000000E+023.4999999428E+02+
*       1.0200000000E+04               0
GRID*               4199               09.0000000000E+023.4999999428E+02+
*       9.6000000000E+03               0
GRID*               4200               09.0000000000E+023.4999999428E+02+
*       9.0000000000E+03               0
GRID*               4201               09.0000000000E+023.4999999428E+02+
*       8.4000000000E+03               0
GRID*               4202               09.0000000000E+023.4999999428E+02+
*       7.8000000000E+03               0
GRID*               4203               09.0000000000E+023.4999999428E+02+
*       7.2000000000E+03               0
GRID*               4204               09.0000000000E+023.4999999428E+02+
*       6.6000000000E+03               0
GRID*               4205               09.0000000000E+023.4999999428E+02+
*       6.0000000000E+03               0
GRID*               4206               09.0000000000E+023.4999999428E+02+
*       5.4000000000E+03               0
GRID*               4207               09.0000000000E+023.4999999428E+02+
*       4.8000000000E+03               0
GRID*               4208               09.0000000000E+023.4999999428E+02+
*       4.2000000000E+03               0
GRID*               4209               09.0000000000E+023.4999999428E+02+
*       3.6000000000E+03               0
GRID*               4210               09.0000000000E+023.4999999428E+02+
*       3.0000000000E+03               0
GRID*               4211               09.0000000000E+023.4999999428E+02+
*       2.4000002474E+03               0
GRID*               4212               09.0000000000E+023.4999999428E+02+
*       1.8000000000E+03               0
GRID*               4213               09.0000000000E+023.4999999428E+02+
*       1.2000000000E+03               0
GRID*               4214               03.0000000000E+023.4999999428E+02+
*       1.2000000000E+03               0
GRID*               4215               0-3.000000000E+023.4999999428E+02+
*       1.2000000000E+03               0
GRID*               4216               0-3.000000000E+023.4999999428E+02+
*       1.8000000000E+03               0
GRID*               4217               0-3.000000000E+023.4999999428E+02+
*       2.4000000000E+03               0
GRID*               4218               0-3.000000000E+023.4999999428E+02+
*       3.0000000000E+03               0
GRID*               4219               0-3.000000000E+023.4999999428E+02+
*       3.6000000000E+03               0
GRID*               4220               0-3.000000000E+023.4999999428E+02+
*       4.2000000000E+03               0
GRID*               4221               0-3.000000000E+023.4999999428E+02+
*       4.8000000000E+03               0
GRID*               4222               0-3.000000000E+023.4999999428E+02+
*       5.4000000000E+03               0
GRID*               4223               0-3.000000000E+023.4999999428E+02+
*       6.0000000000E+03               0
GRID*               4224               0-3.000000000E+023.4999999428E+02+
*       6.6000000000E+03               0
GRID*               4225               0-3.000000000E+023.4999999428E+02+
*       7.2000003030E+03               0
GRID*               4226               0-3.000000000E+023.4999999428E+02+
*       7.8000000000E+03               0
GRID*               4227               0-3.000000000E+023.4999999428E+02+
*       8.4000000000E+03               0
GRID*               4228               0-3.000000000E+023.4999999428E+02+
*       9.0000000000E+03               0
GRID*               4229               0-3.000000000E+023.4999999428E+02+
*       9.6000000000E+03               0
GRID*               4230               0-3.000000000E+023.4999999428E+02+
*       1.0200000000E+04               0
GRID*               4231               0-3.000000000E+023.4999999428E+02+
*       1.0800000000E+04               0
GRID*               4232               0-3.000000000E+023.4999999428E+02+
*       1.1400000000E+04               0
GRID*               4233               0-3.000000000E+023.4999999428E+02+
*       1.2000000000E+04               0
GRID*               4234               0-3.000000000E+023.4999999428E+02+
*       1.2600000000E+04               0
GRID*               4235               0-3.000000000E+023.4999999428E+02+
*       1.3200000000E+04               0
GRID*               4236               0-3.000000000E+023.4999999428E+02+
*       1.3800000000E+04               0
GRID*               4237               0-3.000000000E+023.4999999428E+02+
*       1.4400000000E+04               0
GRID*               4238               0-3.000000000E+023.4999999428E+02+
*       1.5000000000E+04               0
GRID*               4239               0-3.000000000E+023.4999999428E+02+
*       1.5600000000E+04               0
GRID*               4240               0-3.000000000E+023.4999999428E+02+
*       1.6200000000E+04               0
GRID*               4241               0-3.000000000E+023.4999999428E+02+
*       1.6800000000E+04               0
GRID*               4242               0-3.000000000E+023.4999999428E+02+
*       1.7400000000E+04               0
GRID*               4243               0-3.000000000E+023.4999999428E+02+
*       1.8000000000E+04               0
GRID*               4244               0-3.000000000E+023.4999999428E+02+
*       1.8600000000E+04               0
GRID*               4245               0-3.000000000E+023.4999999428E+02+
*       1.9200000606E+04               0
GRID*               4246               0-3.000000000E+023.4999999428E+02+
*       1.9800000000E+04               0
GRID*               4247               0-3.000000000E+023.4999999428E+02+
*       2.0400000000E+04               0
GRID*               4248               0-3.000000000E+023.4999999428E+02+
*       2.1000000000E+04               0
GRID*               4249               0-3.000000000E+023.4999999428E+02+
*       2.1600000000E+04               0
GRID*               4250               0-3.000000000E+023.4999999428E+02+
*       2.2200000000E+04               0
GRID*               4251               0-3.000000000E+023.4999999428E+02+
*       2.2800000000E+04               0
GRID*               4252               0-3.000000000E+023.4999999428E+02+
*       2.3400000000E+04               0
GRID*               4253               0-3.000000000E+023.4999999428E+02+
*       2.4000000000E+04               0
GRID*               4254               0-3.000000000E+023.4999999428E+02+
*       2.4600000000E+04               0
GRID*               4255               0-3.000000000E+023.4999999428E+02+
*       2.5200000000E+04               0
GRID*               4256               0-3.000000000E+023.4999999428E+02+
*       2.5800000000E+04               0
GRID*               4257               0-3.000000000E+023.4999999428E+02+
*       2.6400000000E+04               0
GRID*               4258               0-3.000000000E+023.4999999428E+02+
*       2.7000000000E+04               0
GRID*               4259               0-3.000000000E+023.4999999428E+02+
*       2.7600000000E+04               0
GRID*               4260               0-3.000000000E+023.4999999428E+02+
*       2.8200000000E+04               0
GRID*               4261               0-3.000000000E+023.4999999428E+02+
*       2.8800000000E+04               0
GRID*               4262               0-3.000000000E+023.4999999428E+02+
*       2.9400000000E+04               0
GRID*               4263               0-3.000000000E+023.4999999428E+02+
*       3.0000000000E+04               0
GRID*               4264               0-3.000000000E+023.4999999428E+02+
*       3.0600000000E+04               0
GRID*               4265               0-3.000000000E+023.4999999428E+02+
*       3.1200000000E+04               0
GRID*               4266               0-3.000000000E+023.4999999428E+02+
*       3.1800000000E+04               0
GRID*               4267               0-3.000000000E+023.4999999428E+02+
*       3.2400000000E+04               0
GRID*               4268               0-3.000000000E+023.4999999428E+02+
*       3.3000000000E+04               0
GRID*               4269               0-3.000000000E+023.4999999428E+02+
*       3.3600000000E+04               0
GRID*               4270               0-3.000000000E+023.4999999428E+02+
*       3.4200000000E+04               0
GRID*               4271               0-3.000000000E+023.4999999428E+02+
*       3.4800000000E+04               0
GRID*               4272               03.0000000000E+023.4999999428E+02+
*       3.4800000000E+04               0
GRID*               4273               03.0000000000E+023.4999999428E+02+
*       3.4200000000E+04               0
GRID*               4274               03.0000000000E+023.4999999428E+02+
*       3.3600000000E+04               0
GRID*               4275               03.0000000000E+023.4999999428E+02+
*       3.3000000000E+04               0
GRID*               4276               03.0000000000E+023.4999999428E+02+
*       3.2400000000E+04               0
GRID*               4277               03.0000000000E+023.4999999428E+02+
*       3.1800000000E+04               0
GRID*               4278               03.0000000000E+023.4999999428E+02+
*       3.1200000000E+04               0
GRID*               4279               03.0000000000E+023.4999999428E+02+
*       3.0600000000E+04               0
GRID*               4280               03.0000000000E+023.4999999428E+02+
*       3.0000000000E+04               0
GRID*               4281               03.0000000000E+023.4999999428E+02+
*       2.9400000000E+04               0
GRID*               4282               02.9999992425E+023.4999999428E+02+
*       2.8800000606E+04               0
GRID*               4283               03.0000000000E+023.4999999428E+02+
*       2.8200000000E+04               0
GRID*               4284               03.0000000000E+023.4999999428E+02+
*       2.7600000000E+04               0
GRID*               4285               03.0000000000E+023.4999999428E+02+
*       2.7000000000E+04               0
GRID*               4286               03.0000000000E+023.4999999428E+02+
*       2.6400000000E+04               0
GRID*               4287               03.0000000000E+023.4999999428E+02+
*       2.5800000000E+04               0
GRID*               4288               03.0000000000E+023.4999999428E+02+
*       2.5200000000E+04               0
GRID*               4289               03.0000000000E+023.4999999428E+02+
*       2.4600000000E+04               0
GRID*               4290               03.0000000000E+023.4999999428E+02+
*       2.4000000000E+04               0
GRID*               4291               03.0000000000E+023.4999999428E+02+
*       2.3400000000E+04               0
GRID*               4292               03.0000000000E+023.4999999428E+02+
*       2.2800000000E+04               0
GRID*               4293               03.0000000000E+023.4999999428E+02+
*       2.2200000000E+04               0
GRID*               4294               03.0000000000E+023.4999999428E+02+
*       2.1600000000E+04               0
GRID*               4295               03.0000000000E+023.4999999428E+02+
*       2.1000000000E+04               0
GRID*               4296               03.0000000000E+023.4999999428E+02+
*       2.0400000000E+04               0
GRID*               4297               03.0000000000E+023.4999999428E+02+
*       1.9800000000E+04               0
GRID*               4298               03.0000000000E+023.4999999428E+02+
*       1.9200000000E+04               0
GRID*               4299               03.0000000000E+023.4999999428E+02+
*       1.8600000000E+04               0
GRID*               4300               03.0000000000E+023.4999999428E+02+
*       1.8000000000E+04               0
GRID*               4301               03.0000000000E+023.4999999428E+02+
*       1.7400000000E+04               0
GRID*               4302               03.0000000000E+023.4999999428E+02+
*       1.6800000000E+04               0
GRID*               4303               03.0000000000E+023.4999999428E+02+
*       1.6200000000E+04               0
GRID*               4304               03.0000000000E+023.4999999428E+02+
*       1.5600000000E+04               0
GRID*               4305               03.0000000000E+023.4999999428E+02+
*       1.5000000000E+04               0
GRID*               4306               03.0000000000E+023.4999999428E+02+
*       1.4400000000E+04               0
GRID*               4307               03.0000000000E+023.4999999428E+02+
*       1.3800000000E+04               0
GRID*               4308               03.0000000000E+023.4999999428E+02+
*       1.3200000000E+04               0
GRID*               4309               03.0000000000E+023.4999999428E+02+
*       1.2600000000E+04               0
GRID*               4310               03.0000000000E+023.4999999428E+02+
*       1.2000000000E+04               0
GRID*               4311               03.0000000000E+023.4999999428E+02+
*       1.1400000000E+04               0
GRID*               4312               03.0000000000E+023.4999999428E+02+
*       1.0800000000E+04               0
GRID*               4313               03.0000000000E+023.4999999428E+02+
*       1.0200000000E+04               0
GRID*               4314               03.0000000000E+023.4999999428E+02+
*       9.6000000000E+03               0
GRID*               4315               03.0000000000E+023.4999999428E+02+
*       9.0000000000E+03               0
GRID*               4316               03.0000000000E+023.4999999428E+02+
*       8.4000000000E+03               0
GRID*               4317               03.0000000000E+023.4999999428E+02+
*       7.8000000000E+03               0
GRID*               4318               03.0000000000E+023.4999999428E+02+
*       7.2000000000E+03               0
GRID*               4319               03.0000000000E+023.4999999428E+02+
*       6.6000000000E+03               0
GRID*               4320               03.0000000000E+023.4999999428E+02+
*       6.0000000000E+03               0
GRID*               4321               03.0000000000E+023.4999999428E+02+
*       5.4000000000E+03               0
GRID*               4322               03.0000000000E+023.4999999428E+02+
*       4.8000000000E+03               0
GRID*               4323               03.0000000000E+023.4999999428E+02+
*       4.2000000000E+03               0
GRID*               4324               03.0000000000E+023.4999999428E+02+
*       3.6000000000E+03               0
GRID*               4325               03.0000000000E+023.4999999428E+02+
*       3.0000000000E+03               0
GRID*               4326               03.0000000000E+023.4999999428E+02+
*       2.4000000000E+03               0
GRID*               4327               03.0000000000E+023.4999999428E+02+
*       1.8000000000E+03               0
GRID*               6685               01.0004441720E-111.0500000000E+03+
*       1.9200000000E+04               0
GRID*               6684               01.0004441720E-111.0500000000E+03+
*       2.2200000000E+04               0
GRID*               6637               01.0004441720E-111.0500000000E+03+
*       3.4800000000E+04               0
GRID*               6651               01.0004441720E-111.0500000000E+03+
*       1.2000000000E+03               0
GRID*               6665               01.0004441720E-111.0500000000E+03+
*       3.3600000000E+04               0
GRID*               6691               01.0004441720E-111.0500000000E+03+
*       3.5400000000E+04               0
GRID*               6679               01.0004441720E-111.0500000000E+03+
*       2.9400000000E+04               0
GRID*               6659               01.0004441720E-111.0500000000E+03+
*       3.6000000000E+04               0
GRID*               6641               01.0004441720E-111.0500000000E+03+
*       1.2000000000E+04               0
GRID*               6677               01.0004441720E-111.0500000000E+03+
*       1.8000000000E+04               0
GRID*               6661               01.0004441720E-111.0500000000E+03+
*       5.4000000000E+03               0
GRID*               6635               01.0004441720E-111.0500000000E+03+
*       2.7000000000E+04               0
GRID*               6650               01.0004441720E-111.0500000000E+03+
*       1.2600000000E+04               0
GRID*               6668               01.0004441720E-111.0500000000E+03+
*       3.0600000000E+04               0
GRID*               6636               01.0004441720E-111.0500000000E+03+
*       1.1400000000E+04               0
GRID*               6646               01.0004441720E-111.0500000000E+03+
*       2.8200000000E+04               0
GRID*               6639               01.0004441720E-111.0500000000E+03+
*       3.1800000000E+04               0
GRID*               6643               01.0004441720E-111.0500000000E+03+
*       2.6400000000E+04               0
GRID*               6653               01.0004441720E-111.0500000000E+03+
*       2.3400000000E+04               0
GRID*               6642               01.0004441720E-111.0500000000E+03+
*       2.8800000000E+04               0
GRID*               6670               01.0004441720E-111.0500000000E+03+
*       -1.307398634E-12               0
GRID*               6663               01.0004441720E-111.0500000000E+03+
*       1.3200000000E+04               0
GRID*               6652               01.0004441720E-111.0500000000E+03+
*       7.2000000000E+03               0
GRID*               6690               01.0004441720E-111.0500000000E+03+
*       1.8600000000E+04               0
GRID*               6669               01.0004441720E-111.0500000000E+03+
*       2.4000000000E+03               0
GRID*               6649               01.0004441720E-111.0500000000E+03+
*       2.1000000000E+04               0
GRID*               6640               01.0004441720E-111.0500000000E+03+
*       3.1200000000E+04               0
GRID*               6682               01.0004441720E-111.0500000000E+03+
*       1.3800000000E+04               0
GRID*               6656               01.0004441720E-111.0500000000E+03+
*       4.2000000000E+03               0
GRID*               6666               01.0004441720E-111.0500000000E+03+
*       3.3000000000E+04               0
GRID*               6672               01.0004441720E-111.0500000000E+03+
*       2.4000000000E+04               0
GRID*               6655               01.0004441720E-111.0500000000E+03+
*       1.6800000000E+04               0
GRID*               6648               01.0004441720E-111.0500000000E+03+
*       1.5000000000E+04               0
GRID*               6633               01.0004441720E-111.0500000000E+03+
*       9.0000000000E+03               0
GRID*               6647               01.0004441720E-111.0500000000E+03+
*       3.0000000000E+04               0
GRID*               6678               01.0004441720E-111.0500000000E+03+
*       6.6000000000E+03               0
GRID*               6674               01.0004441720E-111.0500000000E+03+
*       2.0400000000E+04               0
GRID*               6657               01.0004441720E-111.0500000000E+03+
*       2.1600000000E+04               0
GRID*               6673               01.0004441720E-111.0500000000E+03+
*       4.8000000000E+03               0
GRID*               6634               01.0004441720E-111.0500000000E+03+
*       1.4400000000E+04               0
GRID*               6689               01.0004441720E-111.0500000000E+03+
*       1.0200000000E+04               0
GRID*               6683               01.0004441720E-111.0500000000E+03+
*       2.4600000000E+04               0
GRID*               6675               01.0004441720E-111.0500000000E+03+
*       1.0800000000E+04               0
GRID*               6660               01.0004441720E-111.0500000000E+03+
*       3.2400000000E+04               0
GRID*               6671               01.0004441720E-111.0500000000E+03+
*       3.0000000000E+03               0
GRID*               6687               01.0004441720E-111.0500000000E+03+
*       1.9800000000E+04               0
GRID*               6680               01.0004441720E-111.0500000000E+03+
*       1.5600000000E+04               0
GRID*               6664               01.0004441720E-111.0500000000E+03+
*       9.6000000000E+03               0
GRID*               6667               01.0004441720E-111.0500000000E+03+
*       6.0000000000E+03               0
GRID*               6662               01.0004441720E-111.0500000000E+03+
*       2.2800000000E+04               0
GRID*               6686               01.0004441720E-111.0500000000E+03+
*       1.8000000000E+03               0
GRID*               6681               01.0004441720E-111.0500000000E+03+
*       2.7600000000E+04               0
GRID*               6654               01.0004441720E-111.0500000000E+03+
*       7.8000000000E+03               0
GRID*               6632               01.0004441720E-111.0500000000E+03+
*       2.5200000000E+04               0
GRID*               6688               01.0004441720E-111.0500000000E+03+
*       3.4200000000E+04               0
GRID*               6676               01.0004441720E-111.0500000000E+03+
*       1.7400000000E+04               0
GRID*               6644               01.0004441720E-111.0500000000E+03+
*       1.6200000000E+04               0
GRID*               6638               01.0004441720E-111.0500000000E+03+
*       6.0000000000E+02               0
GRID*               6645               01.0004441720E-111.0500000000E+03+
*       3.6000000000E+03               0
GRID*               6658               01.0004441720E-111.0500000000E+03+
*       8.4000000000E+03               0
GRID*               6692               01.0004441720E-111.0500000000E+03+
*       2.5800000000E+04               0
GRID*               6733               05.5706550484E-126.5000000000E+02+
*       2.4000000000E+04               0
GRID*               6753               05.5706550484E-126.5000000000E+02+
*       2.5800000000E+04               0
GRID*               6722               05.5706550484E-126.5000000000E+02+
*       5.4000000000E+03               0
GRID*               6700               05.5706550484E-126.5000000000E+02+
*       3.1800000000E+04               0
GRID*               6697               05.5706550484E-126.5000000000E+02+
*       1.1400000000E+04               0
GRID*               6696               05.5706550484E-126.5000000000E+02+
*       2.7000000000E+04               0
GRID*               6734               05.5706550484E-126.5000000000E+02+
*       4.8000000000E+03               0
GRID*               6732               05.5706550484E-126.5000000000E+02+
*       3.0000000000E+03               0
GRID*               6728               05.5706550484E-126.5000000000E+02+
*       6.0000000000E+03               0
GRID*               6706               05.5706550484E-126.5000000000E+02+
*       3.6000000000E+03               0
GRID*               6702               05.5706550484E-126.5000000000E+02+
*       1.2000000000E+04               0
GRID*               6742               05.5706550484E-126.5000000000E+02+
*       2.7600000000E+04               0
GRID*               6693               05.5706550484E-126.5000000000E+02+
*       2.5200000000E+04               0
GRID*               6738               05.5706550484E-126.5000000000E+02+
*       1.8000000000E+04               0
GRID*               6721               05.5706550484E-126.5000000000E+02+
*       3.2400000000E+04               0
GRID*               6741               05.5706550484E-126.5000000000E+02+
*       1.5600000000E+04               0
GRID*               6748               05.5706550484E-126.5000000000E+02+
*       1.9800000000E+04               0
GRID*               6698               05.5706550484E-126.5000000000E+02+
*       3.4800000000E+04               0
GRID*               6724               05.5706550484E-126.5000000000E+02+
*       1.3200000000E+04               0
GRID*               6749               05.5706550484E-126.5000000000E+02+
*       3.4200000000E+04               0
GRID*               6747               05.5706550484E-126.5000000000E+02+
*       1.8000000000E+03               0
GRID*               6750               05.5706550484E-126.5000000000E+02+
*       1.0200000000E+04               0
GRID*               6739               05.5706550484E-126.5000000000E+02+
*       6.6000000000E+03               0
GRID*               6703               05.5706550484E-126.5000000000E+02+
*       2.8800000000E+04               0
GRID*               6746               05.5706550484E-126.5000000000E+02+
*       1.9200000000E+04               0
GRID*               6735               05.5706550484E-126.5000000000E+02+
*       2.0400000000E+04               0
GRID*               6723               05.5706550484E-126.5000000000E+02+
*       2.2800000000E+04               0
GRID*               6717               05.5706550484E-126.5000000000E+02+
*       4.2000000000E+03               0
GRID*               6712               05.5706550484E-126.5000000000E+02+
*       1.2000000000E+03               0
GRID*               6725               05.5706550484E-126.5000000000E+02+
*       9.6000000000E+03               0
GRID*               6694               05.5706550484E-126.5000000000E+02+
*       9.0000000000E+03               0
GRID*               6727               05.5706550484E-126.5000000000E+02+
*       3.3000000000E+04               0
GRID*               6752               05.5706550484E-126.5000000000E+02+
*       3.5400000000E+04               0
GRID*               6719               05.5706550484E-126.5000000000E+02+
*       8.4000000000E+03               0
GRID*               6711               05.5706550484E-126.5000000000E+02+
*       1.2600000000E+04               0
GRID*               6709               05.5706550484E-126.5000000000E+02+
*       1.5000000000E+04               0
GRID*               6740               05.5706550484E-126.5000000000E+02+
*       2.9400000000E+04               0
GRID*               6730               05.5706550484E-126.5000000000E+02+
*       2.4000000000E+03               0
GRID*               6704               05.5706550484E-126.5000000000E+02+
*       2.6400000000E+04               0
GRID*               6707               05.5706550484E-126.5000000000E+02+
*       2.8200000000E+04               0
GRID*               6718               05.5706550484E-126.5000000000E+02+
*       2.1600000000E+04               0
GRID*               6716               05.5706550484E-126.5000000000E+02+
*       1.6800000000E+04               0
GRID*               6731               05.5706550484E-126.5000000000E+02+
*       1.1652900866E-12               0
GRID*               6708               05.5706550484E-126.5000000000E+02+
*       3.0000000000E+04               0
GRID*               6726               05.5706550484E-126.5000000000E+02+
*       3.3600000000E+04               0
GRID*               6744               05.5706550484E-126.5000000000E+02+
*       2.4600000000E+04               0
GRID*               6714               05.5706550484E-126.5000000000E+02+
*       2.3400000000E+04               0
GRID*               6736               05.5706550484E-126.5000000000E+02+
*       1.0800000000E+04               0
GRID*               6705               05.5706550484E-126.5000000000E+02+
*       1.6200000000E+04               0
GRID*               6743               05.5706550484E-126.5000000000E+02+
*       1.3800000000E+04               0
GRID*               6745               05.5706550484E-126.5000000000E+02+
*       2.2200000000E+04               0
GRID*               6710               05.5706550484E-126.5000000000E+02+
*       2.1000000000E+04               0
GRID*               6695               05.5706550484E-126.5000000000E+02+
*       1.4400000000E+04               0
GRID*               6715               05.5706550484E-126.5000000000E+02+
*       7.8000000000E+03               0
GRID*               6729               05.5706550484E-126.5000000000E+02+
*       3.0600000000E+04               0
GRID*               6701               05.5706550484E-126.5000000000E+02+
*       3.1200000000E+04               0
GRID*               6751               05.5706550484E-126.5000000000E+02+
*       1.8600000000E+04               0
GRID*               6737               05.5706550484E-126.5000000000E+02+
*       1.7400000000E+04               0
GRID*               6713               05.5706550484E-126.5000000000E+02+
*       7.2000000000E+03               0
GRID*               6720               05.5706550484E-126.5000000000E+02+
*       3.6000000000E+04               0
GRID*               6699               05.5706550484E-126.5000000000E+02+
*       6.0000000000E+02               0
$*
$* ELEMENT CARDS
$*
$*  NX mesh: [Bridge_f]:Bridge_Mesh(1)
CHEXA         23       4    1955      79    2065    1316    1282    2032+
+           1697     171    1963    2066    1432    1433    1298    2034+
+           1728     287    1287    1726     288     289
CHEXA         24       4    1282    2032    1697     171    1940    2098+
+           2001     901    1287    1726     288     289    1286    2033+
+           1727     290    1941    2002    1017    1018
CHEXA         25       4    1317    1956    1955    1316     172    1283+
+           1282     171    1434    1962    1433    1435     291    1297+
+           1298     287     292    1289     289     293
CHEXA         26       4     172    1283    1282     171     902    1939+
+           1940     901     292    1289     289     293     294    1288+
+           1286     290    1019    1942    1018    1020
CHEXA         27       4    1318    1957    1956    1317     173    1284+
+           1283     172    1436    1961    1434    1437     295    1296+
+           1297     291     296    1291     292     297
CHEXA         28       4     173    1284    1283     172     903    1938+
+           1939     902     296    1291     292     297     298    1290+
+           1288     294    1021    1943    1019    1022
CHEXA         29       4    1319    1958    1957    1318     174    1285+
+           1284     173    1438    1960    1436    1439     299    1295+
+           1296     295     300    1293     296     301
CHEXA         30       4     174    1285    1284     173     904    1937+
+           1938     903     300    1293     296     301     302    1292+
+           1290     298    1023    1944    1021    1024
CHEXA         31       4    1906      75    1958    1319     784    1873+
+           1285     174    1907    1959    1438    1440     814    1874+
+           1295     299     813    1294     300     303
CHEXA         32       4     784    1873    1285     174    1842    2097+
+           1937     904     813    1294     300     303     815    1875+
+           1292     302    1843    1945    1023    1025
CHEXA         33       4    1320    1905    1906    1319     175     785+
+            784     174    1441    1936    1440    1442     304     900+
+            814     299     305     817     303     306
CHEXA         34       4     175     785     784     174     905    1841+
+           1842     904     305     817     303     306     307     816+
+            815     302    1026    1844    1025    1027
CHEXA         35       4    1321    1904    1905    1320     176     786+
+            785     175    1443    1935    1441    1444     308     899+
+            900     304     309     819     305     310
CHEXA         36       4     176     786     785     175     906    1840+
+           1841     905     309     819     305     310     311     818+
+            816     307    1028    1845    1026    1029
CHEXA         37       4    1322    1903    1904    1321     177     787+
+            786     176    1445    1934    1443    1446     312     898+
+            899     308     313     821     309     314
CHEXA         38       4     177     787     786     176     907    1839+
+           1840     906     313     821     309     314     315     820+
+            818     311    1030    1846    1028    1031
CHEXA         39       4    1323    1902    1903    1322     178     788+
+            787     177    1447    1933    1445    1448     316     897+
+            898     312     317     823     313     318
CHEXA         40       4     178     788     787     177     908    1838+
+           1839     907     317     823     313     318     319     822+
+            820     315    1032    1847    1030    1033
CHEXA         41       4    1324    1901    1902    1323     179     789+
+            788     178    1449    1932    1447    1450     320     896+
+            897     316     321     825     317     322
CHEXA         42       4     179     789     788     178     909    1837+
+           1838     908     321     825     317     322     323     824+
+            822     319    1034    1848    1032    1035
CHEXA         43       4    1325    1900    1901    1324     180     790+
+            789     179    1451    1931    1449    1452     324     895+
+            896     320     325     827     321     326
CHEXA         44       4     180     790     789     179     910    1836+
+           1837     909     325     827     321     326     327     826+
+            824     323    1036    1849    1034    1037
CHEXA         45       4    1326    1899    1900    1325     181     791+
+            790     180    1453    1930    1451    1454     328     894+
+            895     324     329     829     325     330
CHEXA         46       4     181     791     790     180     911    1835+
+           1836     910     329     829     325     330     331     828+
+            826     327    1038    1850    1036    1039
CHEXA         47       4    1327    1898    1899    1326     182     792+
+            791     181    1455    1929    1453    1456     332     893+
+            894     328     333     831     329     334
CHEXA         48       4     182     792     791     181     912    1834+
+           1835     911     333     831     329     334     335     830+
+            828     331    1040    1851    1038    1041
CHEXA         49       4    1328    1897    1898    1327     183     793+
+            792     182    1457    1928    1455    1458     336     892+
+            893     332     337     833     333     338
CHEXA         50       4     183     793     792     182     913    1833+
+           1834     912     337     833     333     338     339     832+
+            830     335    1042    1852    1040    1043
CHEXA         51       4    1329    1896    1897    1328     184     794+
+            793     183    1459    1927    1457    1460     340     891+
+            892     336     341     835     337     342
CHEXA         52       4     184     794     793     183     914    1832+
+           1833     913     341     835     337     342     343     834+
+            832     339    1044    1853    1042    1045
CHEXA         53       4    1330    1895    1896    1329     185     795+
+            794     184    1461    1926    1459    1462     344     890+
+            891     340     345     837     341     346
CHEXA         54       4     185     795     794     184     915    1831+
+           1832     914     345     837     341     346     347     836+
+            834     343    1046    1854    1044    1047
CHEXA         55       4    1331    1894    1895    1330     186     796+
+            795     185    1463    1925    1461    1464     348     889+
+            890     344     349     839     345     350
CHEXA         56       4     186     796     795     185     916    1830+
+           1831     915     349     839     345     350     351     838+
+            836     347    1048    1855    1046    1049
CHEXA         57       4    1332    1893    1894    1331     187     797+
+            796     186    1465    1924    1463    1466     352     888+
+            889     348     353     841     349     354
CHEXA         58       4     187     797     796     186     917    1829+
+           1830     916     353     841     349     354     355     840+
+            838     351    1050    1856    1048    1051
CHEXA         59       4    1333      36    1893    1332     188     798+
+            797     187    1467    1923    1465    1468     356     887+
+            888     352     357     843     353     358
CHEXA         60       4     188     798     797     187     918    1828+
+           1829     917     357     843     353     358     359     842+
+            840     355    1052    1857    1050    1053
CHEXA         61       4    1334    1892      36    1333     189     799+
+            798     188    1469    1922    1467    1470     360     886+
+            887     356     361     845     357     362
CHEXA         62       4     189     799     798     188     919    1827+
+           1828     918     361     845     357     362     363     844+
+            842     359    1054    1858    1052    1055
CHEXA         63       4    1335    1891    1892    1334     190     800+
+            799     189    1471    1921    1469    1472     364     885+
+            886     360     365     847     361     366
CHEXA         64       4     190     800     799     189     920    1826+
+           1827     919     365     847     361     366     367     846+
+            844     363    1056    1859    1054    1057
CHEXA         65       4    1336    1890    1891    1335     191     801+
+            800     190    1473    1920    1471    1474     368     884+
+            885     364     369     849     365     370
CHEXA         66       4     191     801     800     190     921    1825+
+           1826     920     369     849     365     370     371     848+
+            846     367    1058    1860    1056    1059
CHEXA         67       4    1337    1889    1890    1336     192     802+
+            801     191    1475    1919    1473    1476     372     883+
+            884     368     373     851     369     374
CHEXA         68       4     192     802     801     191     922    1824+
+           1825     921     373     851     369     374     375     850+
+            848     371    1060    1861    1058    1061
CHEXA         69       4    1338    1888    1889    1337     193     803+
+            802     192    1477    1918    1475    1478     376     882+
+            883     372     377     853     373     378
CHEXA         70       4     193     803     802     192     923    1823+
+           1824     922     377     853     373     378     379     852+
+            850     375    1062    1862    1060    1063
CHEXA         71       4    1339    1887    1888    1338     194     804+
+            803     193    1479    1917    1477    1480     380     881+
+            882     376     381     855     377     382
CHEXA         72       4     194     804     803     193     924    1822+
+           1823     923     381     855     377     382     383     854+
+            852     379    1064    1863    1062    1065
CHEXA         73       4    1340    1886    1887    1339     195     805+
+            804     194    1481    1916    1479    1482     384     880+
+            881     380     385     857     381     386
CHEXA         74       4     195     805     804     194     925    1821+
+           1822     924     385     857     381     386     387     856+
+            854     383    1066    1864    1064    1067
CHEXA         75       4    1341    1885    1886    1340     196     806+
+            805     195    1483    1915    1481    1484     388     879+
+            880     384     389     859     385     390
CHEXA         76       4     196     806     805     195     926    1820+
+           1821     925     389     859     385     390     391     858+
+            856     387    1068    1865    1066    1069
CHEXA         77       4    1342    1884    1885    1341     197     807+
+            806     196    1485    1914    1483    1486     392     878+
+            879     388     393     861     389     394
CHEXA         78       4     197     807     806     196     927    1819+
+           1820     926     393     861     389     394     395     860+
+            858     391    1070    1866    1068    1071
CHEXA         79       4    1343    1883    1884    1342     198     808+
+            807     197    1487    1913    1485    1488     396     877+
+            878     392     397     863     393     398
CHEXA         80       4     198     808     807     197     928    1818+
+           1819     927     397     863     393     398     399     862+
+            860     395    1072    1867    1070    1073
CHEXA         81       4    1344    1882    1883    1343     199     809+
+            808     198    1489    1912    1487    1490     400     876+
+            877     396     401     865     397     402
CHEXA         82       4     199     809     808     198     929    1817+
+           1818     928     401     865     397     402     403     864+
+            862     399    1074    1868    1072    1075
CHEXA         83       4    1345    1881    1882    1344     200     810+
+            809     199    1491    1911    1489    1492     404     875+
+            876     400     405     867     401     406
CHEXA         84       4     200     810     809     199     930    1816+
+           1817     929     405     867     401     406     407     866+
+            864     403    1076    1869    1074    1077
CHEXA         85       4    1346    1880    1881    1345     201     811+
+            810     200    1493    1910    1491    1494     408     874+
+            875     404     409     869     405     410
CHEXA         86       4     201     811     810     200     931    1815+
+           1816     930     409     869     405     410     411     868+
+            866     407    1078    1870    1076    1079
CHEXA         87       4    1347    1879    1880    1346     202     812+
+            811     201    1495    1909    1493    1496     412     873+
+            874     408     413     871     409     414
CHEXA         88       4     202     812     811     201     932    1814+
+           1815     931     413     871     409     414     415     870+
+            868     411    1080    1871    1078    1081
CHEXA         89       4    1967      76    1879    1347    1299    1876+
+            812     202    1972    1908    1495    1497    1315    1878+
+            873     412    1304     872     413     416
CHEXA         90       4    1299    1876     812     202    1946    2096+
+           1814     932    1304     872     413     416    1303    1877+
+            870     415    1950    1872    1080    1082
CHEXA         91       4    1348    1966    1967    1347     203    1300+
+           1299     202    1498    1971    1497    1499     417    1314+
+           1315     412     418    1306     416     419
CHEXA         92       4     203    1300    1299     202     933    1947+
+           1946     932     418    1306     416     419     420    1305+
+           1303     415    1083    1951    1082    1084
CHEXA         93       4    1349    1965    1966    1348     204    1301+
+           1300     203    1500    1970    1498    1501     421    1313+
+           1314     417     422    1308     418     423
CHEXA         94       4     204    1301    1300     203     934    1948+
+           1947     933     422    1308     418     423     424    1307+
+           1305     420    1085    1952    1083    1086
CHEXA         95       4    1350    1964    1965    1349     205    1302+
+           1301     204    1502    1969    1500    1503     425    1312+
+           1313     421     426    1310     422     427
CHEXA         96       4     205    1302    1301     204     935    1949+
+           1948     934     426    1310     422     427     428    1309+
+           1307     424    1087    1953    1085    1088
CHEXA         97       4    2038      80    1964    1350    1725    2035+
+           1302     205    2067    1968    1502    1504    1783    2037+
+           1312     425    1785    1311     426     429
CHEXA         98       4    1725    2035    1302     205    1973    2099+
+           1949     935    1785    1311     426     429    1786    2036+
+           1309     428    2003    1954    1087    1089
CHEXA         99       4    1351    2039    2038    1350     206    1724+
+           1725     205    1505    2068    1504    1506     430    1781+
+           1783     425     431    1784     429     432
CHEXA        100       4     206    1724    1725     205     936    1974+
+           1973     935     431    1784     429     432     433    1787+
+           1786     428    1090    2004    1089    1091
CHEXA        101       4    1352    2040    2039    1351     207    1723+
+           1724     206    1507    2069    1505    1508     434    1779+
+           1781     430     435    1782     431     436
CHEXA        102       4     207    1723    1724     206     937    1975+
+           1974     936     435    1782     431     436     437    1788+
+           1787     433    1092    2005    1090    1093
CHEXA        103       4    1353    2041    2040    1352     208    1722+
+           1723     207    1509    2070    1507    1510     438    1777+
+           1779     434     439    1780     435     440
CHEXA        104       4     208    1722    1723     207     938    1976+
+           1975     937     439    1780     435     440     441    1789+
+           1788     437    1094    2006    1092    1095
CHEXA        105       4    1354    2042    2041    1353     209    1721+
+           1722     208    1511    2071    1509    1512     442    1775+
+           1777     438     443    1778     439     444
CHEXA        106       4     209    1721    1722     208     939    1977+
+           1976     938     443    1778     439     444     445    1790+
+           1789     441    1096    2007    1094    1097
CHEXA        107       4    1355    2043    2042    1354     210    1720+
+           1721     209    1513    2072    1511    1514     446    1773+
+           1775     442     447    1776     443     448
CHEXA        108       4     210    1720    1721     209     940    1978+
+           1977     939     447    1776     443     448     449    1791+
+           1790     445    1098    2008    1096    1099
CHEXA        109       4    1356    2044    2043    1355     211    1719+
+           1720     210    1515    2073    1513    1516     450    1771+
+           1773     446     451    1774     447     452
CHEXA        110       4     211    1719    1720     210     941    1979+
+           1978     940     451    1774     447     452     453    1792+
+           1791     449    1100    2009    1098    1101
CHEXA        111       4    1357    2045    2044    1356     212    1718+
+           1719     211    1517    2074    1515    1518     454    1769+
+           1771     450     455    1772     451     456
CHEXA        112       4     212    1718    1719     211     942    1980+
+           1979     941     455    1772     451     456     457    1793+
+           1792     453    1102    2010    1100    1103
CHEXA        113       4    1358    2046    2045    1357     213    1717+
+           1718     212    1519    2075    1517    1520     458    1767+
+           1769     454     459    1770     455     460
CHEXA        114       4     213    1717    1718     212     943    1981+
+           1980     942     459    1770     455     460     461    1794+
+           1793     457    1104    2011    1102    1105
CHEXA        115       4    1359    2047    2046    1358     214    1716+
+           1717     213    1521    2076    1519    1522     462    1765+
+           1767     458     463    1768     459     464
CHEXA        116       4     214    1716    1717     213     944    1982+
+           1981     943     463    1768     459     464     465    1795+
+           1794     461    1106    2012    1104    1107
CHEXA        117       4    1360    2048    2047    1359     215    1715+
+           1716     214    1523    2077    1521    1524     466    1763+
+           1765     462     467    1766     463     468
CHEXA        118       4     215    1715    1716     214     945    1983+
+           1982     944     467    1766     463     468     469    1796+
+           1795     465    1108    2013    1106    1109
CHEXA        119       4    1361    2049    2048    1360     216    1714+
+           1715     215    1525    2078    1523    1526     470    1761+
+           1763     466     471    1764     467     472
CHEXA        120       4     216    1714    1715     215     946    1984+
+           1983     945     471    1764     467     472     473    1797+
+           1796     469    1110    2014    1108    1111
CHEXA        121       4    1362    2050    2049    1361     217    1713+
+           1714     216    1527    2079    1525    1528     474    1759+
+           1761     470     475    1762     471     476
CHEXA        122       4     217    1713    1714     216     947    1985+
+           1984     946     475    1762     471     476     477    1798+
+           1797     473    1112    2015    1110    1113
CHEXA        123       4    1363    2051    2050    1362     218    1712+
+           1713     217    1529    2080    1527    1530     478    1757+
+           1759     474     479    1760     475     480
CHEXA        124       4     218    1712    1713     217     948    1986+
+           1985     947     479    1760     475     480     481    1799+
+           1798     477    1114    2016    1112    1115
CHEXA        125       4    1364      64    2051    1363     219    1711+
+           1712     218    1531    2081    1529    1532     482    1755+
+           1757     478     483    1758     479     484
CHEXA        126       4     219    1711    1712     218     949    1987+
+           1986     948     483    1758     479     484     485    1800+
+           1799     481    1116    2017    1114    1117
CHEXA        127       4    1365    2052      64    1364     220    1710+
+           1711     219    1533    2082    1531    1534     486    1753+
+           1755     482     487    1756     483     488
CHEXA        128       4     220    1710    1711     219     950    1988+
+           1987     949     487    1756     483     488     489    1801+
+           1800     485    1118    2018    1116    1119
CHEXA        129       4    1366    2053    2052    1365     221    1709+
+           1710     220    1535    2083    1533    1536     490    1751+
+           1753     486     491    1754     487     492
CHEXA        130       4     221    1709    1710     220     951    1989+
+           1988     950     491    1754     487     492     493    1802+
+           1801     489    1120    2019    1118    1121
CHEXA        131       4    1367    2054    2053    1366     222    1708+
+           1709     221    1537    2084    1535    1538     494    1749+
+           1751     490     495    1752     491     496
CHEXA        132       4     222    1708    1709     221     952    1990+
+           1989     951     495    1752     491     496     497    1803+
+           1802     493    1122    2020    1120    1123
CHEXA        133       4    1368    2055    2054    1367     223    1707+
+           1708     222    1539    2085    1537    1540     498    1747+
+           1749     494     499    1750     495     500
CHEXA        134       4     223    1707    1708     222     953    1991+
+           1990     952     499    1750     495     500     501    1804+
+           1803     497    1124    2021    1122    1125
CHEXA        135       4    1369    2056    2055    1368     224    1706+
+           1707     223    1541    2086    1539    1542     502    1745+
+           1747     498     503    1748     499     504
CHEXA        136       4     224    1706    1707     223     954    1992+
+           1991     953     503    1748     499     504     505    1805+
+           1804     501    1126    2022    1124    1127
CHEXA        137       4    1370    2057    2056    1369     225    1705+
+           1706     224    1543    2087    1541    1544     506    1743+
+           1745     502     507    1746     503     508
CHEXA        138       4     225    1705    1706     224     955    1993+
+           1992     954     507    1746     503     508     509    1806+
+           1805     505    1128    2023    1126    1129
CHEXA        139       4    1371    2058    2057    1370     226    1704+
+           1705     225    1545    2088    1543    1546     510    1741+
+           1743     506     511    1744     507     512
CHEXA        140       4     226    1704    1705     225     956    1994+
+           1993     955     511    1744     507     512     513    1807+
+           1806     509    1130    2024    1128    1131
CHEXA        141       4    1372    2059    2058    1371     227    1703+
+           1704     226    1547    2089    1545    1548     514    1739+
+           1741     510     515    1742     511     516
CHEXA        142       4     227    1703    1704     226     957    1995+
+           1994     956     515    1742     511     516     517    1808+
+           1807     513    1132    2025    1130    1133
CHEXA        143       4    1373    2060    2059    1372     228    1702+
+           1703     227    1549    2090    1547    1550     518    1737+
+           1739     514     519    1740     515     520
CHEXA        144       4     228    1702    1703     227     958    1996+
+           1995     957     519    1740     515     520     521    1809+
+           1808     517    1134    2026    1132    1135
CHEXA        145       4    1374    2061    2060    1373     229    1701+
+           1702     228    1551    2091    1549    1552     522    1735+
+           1737     518     523    1738     519     524
CHEXA        146       4     229    1701    1702     228     959    1997+
+           1996     958     523    1738     519     524     525    1810+
+           1809     521    1136    2027    1134    1137
CHEXA        147       4    1375    2062    2061    1374     230    1700+
+           1701     229    1553    2092    1551    1554     526    1733+
+           1735     522     527    1736     523     528
CHEXA        148       4     230    1700    1701     229     960    1998+
+           1997     959     527    1736     523     528     529    1811+
+           1810     525    1138    2028    1136    1139
CHEXA        149       4    1376    2063    2062    1375     231    1699+
+           1700     230    1555    2093    1553    1556     530    1731+
+           1733     526     531    1734     527     532
CHEXA        150       4     231    1699    1700     230     961    1999+
+           1998     960     531    1734     527     532     533    1812+
+           1811     529    1140    2029    1138    1141
CHEXA        151       4    1377    2064    2063    1376     232    1698+
+           1699     231    1557    2094    1555    1558     534    1729+
+           1731     530     535    1732     531     536
CHEXA        152       4     232    1698    1699     231     962    2000+
+           1999     961     535    1732     531     536     537    1813+
+           1812     533    1142    2030    1140    1143
CHEXA        153       4    1316    2065    2064    1377     171    1697+
+           1698     232    1432    2095    1557    1559     287    1728+
+           1729     534     288    1730     535     538
CHEXA        154       4     171    1697    1698     232     901    2001+
+           2000     962     288    1730     535     538     290    1727+
+           1813     537    1017    2031    1142    1144
CHEXA        155       4    1317    1316    1377    1378     172     171+
+            232     233    1435    1559    1560    1561     291     287+
+            534     539     293     538     540     541
CHEXA        156       4     172     171     232     233     902     901+
+            962     963     293     538     540     541     294     290+
+            537     542    1020    1144    1145    1146
CHEXA        157       4    1379    1318    1317    1378     234     173+
+            172     233    1562    1437    1561    1563     543     295+
+            291     539     544     297     541     545
CHEXA        158       4     234     173     172     233     964     903+
+            902     963     544     297     541     545     546     298+
+            294     542    1147    1022    1146    1148
CHEXA        159       4    1320    1319    1318    1379     175     174+
+            173     234    1442    1439    1562    1564     304     299+
+            295     543     306     301     544     547
CHEXA        160       4     175     174     173     234     905     904+
+            903     964     306     301     544     547     307     302+
+            298     546    1027    1024    1147    1149
CHEXA        161       4    1380    1321    1320    1379     235     176+
+            175     234    1565    1444    1564    1566     548     308+
+            304     543     549     310     547     550
CHEXA        162       4     235     176     175     234     965     906+
+            905     964     549     310     547     550     551     311+
+            307     546    1150    1029    1149    1151
CHEXA        163       4    1381    1322    1321    1380     236     177+
+            176     235    1567    1446    1565    1568     552     312+
+            308     548     553     314     549     554
CHEXA        164       4     236     177     176     235     966     907+
+            906     965     553     314     549     554     555     315+
+            311     551    1152    1031    1150    1153
CHEXA        165       4    1382    1323    1322    1381     237     178+
+            177     236    1569    1448    1567    1570     556     316+
+            312     552     557     318     553     558
CHEXA        166       4     237     178     177     236     967     908+
+            907     966     557     318     553     558     559     319+
+            315     555    1154    1033    1152    1155
CHEXA        167       4    1383    1324    1323    1382     238     179+
+            178     237    1571    1450    1569    1572     560     320+
+            316     556     561     322     557     562
CHEXA        168       4     238     179     178     237     968     909+
+            908     967     561     322     557     562     563     323+
+            319     559    1156    1035    1154    1157
CHEXA        169       4    1384    1325    1324    1383     239     180+
+            179     238    1573    1452    1571    1574     564     324+
+            320     560     565     326     561     566
CHEXA        170       4     239     180     179     238     969     910+
+            909     968     565     326     561     566     567     327+
+            323     563    1158    1037    1156    1159
CHEXA        171       4    1385    1326    1325    1384     240     181+
+            180     239    1575    1454    1573    1576     568     328+
+            324     564     569     330     565     570
CHEXA        172       4     240     181     180     239     970     911+
+            910     969     569     330     565     570     571     331+
+            327     567    1160    1039    1158    1161
CHEXA        173       4    1386    1327    1326    1385     241     182+
+            181     240    1577    1456    1575    1578     572     332+
+            328     568     573     334     569     574
CHEXA        174       4     241     182     181     240     971     912+
+            911     970     573     334     569     574     575     335+
+            331     571    1162    1041    1160    1163
CHEXA        175       4    1387    1328    1327    1386     242     183+
+            182     241    1579    1458    1577    1580     576     336+
+            332     572     577     338     573     578
CHEXA        176       4     242     183     182     241     972     913+
+            912     971     577     338     573     578     579     339+
+            335     575    1164    1043    1162    1165
CHEXA        177       4    1388    1329    1328    1387     243     184+
+            183     242    1581    1460    1579    1582     580     340+
+            336     576     581     342     577     582
CHEXA        178       4     243     184     183     242     973     914+
+            913     972     581     342     577     582     583     343+
+            339     579    1166    1045    1164    1167
CHEXA        179       4    1389    1330    1329    1388     244     185+
+            184     243    1583    1462    1581    1584     584     344+
+            340     580     585     346     581     586
CHEXA        180       4     244     185     184     243     974     915+
+            914     973     585     346     581     586     587     347+
+            343     583    1168    1047    1166    1169
CHEXA        181       4    1390    1331    1330    1389     245     186+
+            185     244    1585    1464    1583    1586     588     348+
+            344     584     589     350     585     590
CHEXA        182       4     245     186     185     244     975     916+
+            915     974     589     350     585     590     591     351+
+            347     587    1170    1049    1168    1171
CHEXA        183       4    1391    1332    1331    1390     246     187+
+            186     245    1587    1466    1585    1588     592     352+
+            348     588     593     354     589     594
CHEXA        184       4     246     187     186     245     976     917+
+            916     975     593     354     589     594     595     355+
+            351     591    1172    1051    1170    1173
CHEXA        185       4    1392    1333    1332    1391     247     188+
+            187     246    1589    1468    1587    1590     596     356+
+            352     592     597     358     593     598
CHEXA        186       4     247     188     187     246     977     918+
+            917     976     597     358     593     598     599     359+
+            355     595    1174    1053    1172    1175
CHEXA        187       4    1393    1334    1333    1392     248     189+
+            188     247    1591    1470    1589    1592     600     360+
+            356     596     601     362     597     602
CHEXA        188       4     248     189     188     247     978     919+
+            918     977     601     362     597     602     603     363+
+            359     599    1176    1055    1174    1177
CHEXA        189       4    1394    1335    1334    1393     249     190+
+            189     248    1593    1472    1591    1594     604     364+
+            360     600     605     366     601     606
CHEXA        190       4     249     190     189     248     979     920+
+            919     978     605     366     601     606     607     367+
+            363     603    1178    1057    1176    1179
CHEXA        191       4    1395    1336    1335    1394     250     191+
+            190     249    1595    1474    1593    1596     608     368+
+            364     604     609     370     605     610
CHEXA        192       4     250     191     190     249     980     921+
+            920     979     609     370     605     610     611     371+
+            367     607    1180    1059    1178    1181
CHEXA        193       4    1396    1337    1336    1395     251     192+
+            191     250    1597    1476    1595    1598     612     372+
+            368     608     613     374     609     614
CHEXA        194       4     251     192     191     250     981     922+
+            921     980     613     374     609     614     615     375+
+            371     611    1182    1061    1180    1183
CHEXA        195       4    1397    1338    1337    1396     252     193+
+            192     251    1599    1478    1597    1600     616     376+
+            372     612     617     378     613     618
CHEXA        196       4     252     193     192     251     982     923+
+            922     981     617     378     613     618     619     379+
+            375     615    1184    1063    1182    1185
CHEXA        197       4    1398    1339    1338    1397     253     194+
+            193     252    1601    1480    1599    1602     620     380+
+            376     616     621     382     617     622
CHEXA        198       4     253     194     193     252     983     924+
+            923     982     621     382     617     622     623     383+
+            379     619    1186    1065    1184    1187
CHEXA        199       4    1399    1340    1339    1398     254     195+
+            194     253    1603    1482    1601    1604     624     384+
+            380     620     625     386     621     626
CHEXA        200       4     254     195     194     253     984     925+
+            924     983     625     386     621     626     627     387+
+            383     623    1188    1067    1186    1189
CHEXA        201       4    1400    1341    1340    1399     255     196+
+            195     254    1605    1484    1603    1606     628     388+
+            384     624     629     390     625     630
CHEXA        202       4     255     196     195     254     985     926+
+            925     984     629     390     625     630     631     391+
+            387     627    1190    1069    1188    1191
CHEXA        203       4    1401    1342    1341    1400     256     197+
+            196     255    1607    1486    1605    1608     632     392+
+            388     628     633     394     629     634
CHEXA        204       4     256     197     196     255     986     927+
+            926     985     633     394     629     634     635     395+
+            391     631    1192    1071    1190    1193
CHEXA        205       4    1402    1343    1342    1401     257     198+
+            197     256    1609    1488    1607    1610     636     396+
+            392     632     637     398     633     638
CHEXA        206       4     257     198     197     256     987     928+
+            927     986     637     398     633     638     639     399+
+            395     635    1194    1073    1192    1195
CHEXA        207       4    1403    1344    1343    1402     258     199+
+            198     257    1611    1490    1609    1612     640     400+
+            396     636     641     402     637     642
CHEXA        208       4     258     199     198     257     988     929+
+            928     987     641     402     637     642     643     403+
+            399     639    1196    1075    1194    1197
CHEXA        209       4    1404    1345    1344    1403     259     200+
+            199     258    1613    1492    1611    1614     644     404+
+            400     640     645     406     641     646
CHEXA        210       4     259     200     199     258     989     930+
+            929     988     645     406     641     646     647     407+
+            403     643    1198    1077    1196    1199
CHEXA        211       4    1405    1346    1345    1404     260     201+
+            200     259    1615    1494    1613    1616     648     408+
+            404     644     649     410     645     650
CHEXA        212       4     260     201     200     259     990     931+
+            930     989     649     410     645     650     651     411+
+            407     647    1200    1079    1198    1201
CHEXA        213       4    1348    1347    1346    1405     203     202+
+            201     260    1499    1496    1615    1617     417     412+
+            408     648     419     414     649     652
CHEXA        214       4     203     202     201     260     933     932+
+            931     990     419     414     649     652     420     415+
+            411     651    1084    1081    1200    1202
CHEXA        215       4    1406    1349    1348    1405     261     204+
+            203     260    1618    1501    1617    1619     653     421+
+            417     648     654     423     652     655
CHEXA        216       4     261     204     203     260     991     934+
+            933     990     654     423     652     655     656     424+
+            420     651    1203    1086    1202    1204
CHEXA        217       4    1351    1350    1349    1406     206     205+
+            204     261    1506    1503    1618    1620     430     425+
+            421     653     432     427     654     657
CHEXA        218       4     206     205     204     261     936     935+
+            934     991     432     427     654     657     433     428+
+            424     656    1091    1088    1203    1205
CHEXA        219       4    1407    1352    1351    1406     262     207+
+            206     261    1621    1508    1620    1622     658     434+
+            430     653     659     436     657     660
CHEXA        220       4     262     207     206     261     992     937+
+            936     991     659     436     657     660     661     437+
+            433     656    1206    1093    1205    1207
CHEXA        221       4    1408    1353    1352    1407     263     208+
+            207     262    1623    1510    1621    1624     662     438+
+            434     658     663     440     659     664
CHEXA        222       4     263     208     207     262     993     938+
+            937     992     663     440     659     664     665     441+
+            437     661    1208    1095    1206    1209
CHEXA        223       4    1409    1354    1353    1408     264     209+
+            208     263    1625    1512    1623    1626     666     442+
+            438     662     667     444     663     668
CHEXA        224       4     264     209     208     263     994     939+
+            938     993     667     444     663     668     669     445+
+            441     665    1210    1097    1208    1211
CHEXA        225       4    1410    1355    1354    1409     265     210+
+            209     264    1627    1514    1625    1628     670     446+
+            442     666     671     448     667     672
CHEXA        226       4     265     210     209     264     995     940+
+            939     994     671     448     667     672     673     449+
+            445     669    1212    1099    1210    1213
CHEXA        227       4    1411    1356    1355    1410     266     211+
+            210     265    1629    1516    1627    1630     674     450+
+            446     670     675     452     671     676
CHEXA        228       4     266     211     210     265     996     941+
+            940     995     675     452     671     676     677     453+
+            449     673    1214    1101    1212    1215
CHEXA        229       4    1412    1357    1356    1411     267     212+
+            211     266    1631    1518    1629    1632     678     454+
+            450     674     679     456     675     680
CHEXA        230       4     267     212     211     266     997     942+
+            941     996     679     456     675     680     681     457+
+            453     677    1216    1103    1214    1217
CHEXA        231       4    1413    1358    1357    1412     268     213+
+            212     267    1633    1520    1631    1634     682     458+
+            454     678     683     460     679     684
CHEXA        232       4     268     213     212     267     998     943+
+            942     997     683     460     679     684     685     461+
+            457     681    1218    1105    1216    1219
CHEXA        233       4    1414    1359    1358    1413     269     214+
+            213     268    1635    1522    1633    1636     686     462+
+            458     682     687     464     683     688
CHEXA        234       4     269     214     213     268     999     944+
+            943     998     687     464     683     688     689     465+
+            461     685    1220    1107    1218    1221
CHEXA        235       4    1415    1360    1359    1414     270     215+
+            214     269    1637    1524    1635    1638     690     466+
+            462     686     691     468     687     692
CHEXA        236       4     270     215     214     269    1000     945+
+            944     999     691     468     687     692     693     469+
+            465     689    1222    1109    1220    1223
CHEXA        237       4    1416    1361    1360    1415     271     216+
+            215     270    1639    1526    1637    1640     694     470+
+            466     690     695     472     691     696
CHEXA        238       4     271     216     215     270    1001     946+
+            945    1000     695     472     691     696     697     473+
+            469     693    1224    1111    1222    1225
CHEXA        239       4    1417    1362    1361    1416     272     217+
+            216     271    1641    1528    1639    1642     698     474+
+            470     694     699     476     695     700
CHEXA        240       4     272     217     216     271    1002     947+
+            946    1001     699     476     695     700     701     477+
+            473     697    1226    1113    1224    1227
CHEXA        241       4    1418    1363    1362    1417     273     218+
+            217     272    1643    1530    1641    1644     702     478+
+            474     698     703     480     699     704
CHEXA        242       4     273     218     217     272    1003     948+
+            947    1002     703     480     699     704     705     481+
+            477     701    1228    1115    1226    1229
CHEXA        243       4    1419    1364    1363    1418     274     219+
+            218     273    1645    1532    1643    1646     706     482+
+            478     702     707     484     703     708
CHEXA        244       4     274     219     218     273    1004     949+
+            948    1003     707     484     703     708     709     485+
+            481     705    1230    1117    1228    1231
CHEXA        245       4    1420    1365    1364    1419     275     220+
+            219     274    1647    1534    1645    1648     710     486+
+            482     706     711     488     707     712
CHEXA        246       4     275     220     219     274    1005     950+
+            949    1004     711     488     707     712     713     489+
+            485     709    1232    1119    1230    1233
CHEXA        247       4    1421    1366    1365    1420     276     221+
+            220     275    1649    1536    1647    1650     714     490+
+            486     710     715     492     711     716
CHEXA        248       4     276     221     220     275    1006     951+
+            950    1005     715     492     711     716     717     493+
+            489     713    1234    1121    1232    1235
CHEXA        249       4    1422    1367    1366    1421     277     222+
+            221     276    1651    1538    1649    1652     718     494+
+            490     714     719     496     715     720
CHEXA        250       4     277     222     221     276    1007     952+
+            951    1006     719     496     715     720     721     497+
+            493     717    1236    1123    1234    1237
CHEXA        251       4    1423    1368    1367    1422     278     223+
+            222     277    1653    1540    1651    1654     722     498+
+            494     718     723     500     719     724
CHEXA        252       4     278     223     222     277    1008     953+
+            952    1007     723     500     719     724     725     501+
+            497     721    1238    1125    1236    1239
CHEXA        253       4    1424    1369    1368    1423     279     224+
+            223     278    1655    1542    1653    1656     726     502+
+            498     722     727     504     723     728
CHEXA        254       4     279     224     223     278    1009     954+
+            953    1008     727     504     723     728     729     505+
+            501     725    1240    1127    1238    1241
CHEXA        255       4    1425    1370    1369    1424     280     225+
+            224     279    1657    1544    1655    1658     730     506+
+            502     726     731     508     727     732
CHEXA        256       4     280     225     224     279    1010     955+
+            954    1009     731     508     727     732     733     509+
+            505     729    1242    1129    1240    1243
CHEXA        257       4    1426    1371    1370    1425     281     226+
+            225     280    1659    1546    1657    1660     734     510+
+            506     730     735     512     731     736
CHEXA        258       4     281     226     225     280    1011     956+
+            955    1010     735     512     731     736     737     513+
+            509     733    1244    1131    1242    1245
CHEXA        259       4    1427    1372    1371    1426     282     227+
+            226     281    1661    1548    1659    1662     738     514+
+            510     734     739     516     735     740
CHEXA        260       4     282     227     226     281    1012     957+
+            956    1011     739     516     735     740     741     517+
+            513     737    1246    1133    1244    1247
CHEXA        261       4    1428    1373    1372    1427     283     228+
+            227     282    1663    1550    1661    1664     742     518+
+            514     738     743     520     739     744
CHEXA        262       4     283     228     227     282    1013     958+
+            957    1012     743     520     739     744     745     521+
+            517     741    1248    1135    1246    1249
CHEXA        263       4    1429    1374    1373    1428     284     229+
+            228     283    1665    1552    1663    1666     746     522+
+            518     742     747     524     743     748
CHEXA        264       4     284     229     228     283    1014     959+
+            958    1013     747     524     743     748     749     525+
+            521     745    1250    1137    1248    1251
CHEXA        265       4    1430    1375    1374    1429     285     230+
+            229     284    1667    1554    1665    1668     750     526+
+            522     746     751     528     747     752
CHEXA        266       4     285     230     229     284    1015     960+
+            959    1014     751     528     747     752     753     529+
+            525     749    1252    1139    1250    1253
CHEXA        267       4    1431    1376    1375    1430     286     231+
+            230     285    1669    1556    1667    1670     754     530+
+            526     750     755     532     751     756
CHEXA        268       4     286     231     230     285    1016     961+
+            960    1015     755     532     751     756     757     533+
+            529     753    1254    1141    1252    1255
CHEXA        269       4    1378    1377    1376    1431     233     232+
+            231     286    1560    1558    1669    1671     539     534+
+            530     754     540     536     755     758
CHEXA        270       4     233     232     231     286     963     962+
+            961    1016     540     536     755     758     542     537+
+            533     757    1145    1143    1254    1256
CHEXA        271       4    1407    1406    1405    1404     262     261+
+            260     259    1622    1619    1616    1672     658     653+
+            648     644     660     655     650     759
CHEXA        272       4     262     261     260     259     992     991+
+            990     989     660     655     650     759     661     656+
+            651     647    1207    1204    1201    1257
CHEXA        273       4    1403    1402    1409    1408     258     257+
+            264     263    1612    1673    1626    1674     640     636+
+            666     662     642     760     668     761
CHEXA        274       4     258     257     264     263     988     987+
+            994     993     642     760     668     761     643     639+
+            669     665    1197    1258    1211    1259
CHEXA        275       4    1407    1404    1403    1408     262     259+
+            258     263    1672    1614    1674    1624     658     644+
+            640     662     759     646     761     664
CHEXA        276       4     262     259     258     263     992     989+
+            988     993     759     646     761     664     661     647+
+            643     665    1257    1199    1259    1209
CHEXA        277       4    1400    1399    1412    1411     255     254+
+            267     266    1606    1675    1632    1676     628     624+
+            678     674     630     762     680     763
CHEXA        278       4     255     254     267     266     985     984+
+            997     996     630     762     680     763     631     627+
+            681     677    1191    1260    1217    1261
CHEXA        279       4    1410    1409    1402    1401     265     264+
+            257     256    1628    1673    1610    1677     670     666+
+            636     632     672     760     638     764
CHEXA        280       4     265     264     257     256     995     994+
+            987     986     672     760     638     764     673     669+
+            639     635    1213    1258    1195    1262
CHEXA        281       4    1400    1411    1410    1401     255     266+
+            265     256    1676    1630    1677    1608     628     674+
+            670     632     763     676     764     634
CHEXA        282       4     255     266     265     256     985     996+
+            995     986     763     676     764     634     631     677+
+            673     635    1261    1215    1262    1193
CHEXA        283       4    1417    1416    1395    1394     272     271+
+            250     249    1642    1678    1596    1679     698     694+
+            608     604     700     765     610     766
CHEXA        284       4     272     271     250     249    1002    1001+
+            980     979     700     765     610     766     701     697+
+            611     607    1227    1263    1181    1264
CHEXA        285       4    1393    1392    1419    1418     248     247+
+            274     273    1592    1680    1646    1681     600     596+
+            706     702     602     767     708     768
CHEXA        286       4     248     247     274     273     978     977+
+           1004    1003     602     767     708     768     603     599+
+            709     705    1177    1265    1231    1266
CHEXA        287       4    1417    1394    1393    1418     272     249+
+            248     273    1679    1594    1681    1644     698     604+
+            600     702     766     606     768     704
CHEXA        288       4     272     249     248     273    1002     979+
+            978    1003     766     606     768     704     701     607+
+            603     705    1264    1179    1266    1229
CHEXA        289       4    1413    1412    1399    1398     268     267+
+            254     253    1634    1675    1604    1682     682     678+
+            624     620     684     762     626     769
CHEXA        290       4     268     267     254     253     998     997+
+            984     983     684     762     626     769     685     681+
+            627     623    1219    1260    1189    1267
CHEXA        291       4    1397    1414    1413    1398     252     269+
+            268     253    1683    1636    1682    1602     616     686+
+            682     620     770     688     769     622
CHEXA        292       4     252     269     268     253     982     999+
+            998     983     770     688     769     622     619     689+
+            685     623    1268    1221    1267    1187
CHEXA        293       4    1396    1395    1416    1415     251     250+
+            271     270    1598    1678    1640    1684     612     608+
+            694     690     614     765     696     771
CHEXA        294       4     251     250     271     270     981     980+
+           1001    1000     614     765     696     771     615     611+
+            697     693    1183    1263    1225    1269
CHEXA        295       4    1414    1397    1396    1415     269     252+
+            251     270    1683    1600    1684    1638     686     616+
+            612     690     770     618     771     692
CHEXA        296       4     269     252     251     270     999     982+
+            981    1000     770     618     771     692     689     619+
+            615     693    1268    1185    1269    1223
CHEXA        297       4    1380    1379    1378    1431     235     234+
+            233     286    1566    1563    1671    1685     548     543+
+            539     754     550     545     758     772
CHEXA        298       4     235     234     233     286     965     964+
+            963    1016     550     545     758     772     551     546+
+            542     757    1151    1148    1256    1270
CHEXA        299       4    1430    1429    1382    1381     285     284+
+            237     236    1668    1686    1570    1687     750     746+
+            556     552     752     773     558     774
CHEXA        300       4     285     284     237     236    1015    1014+
+            967     966     752     773     558     774     753     749+
+            559     555    1253    1271    1155    1272
CHEXA        301       4    1380    1431    1430    1381     235     286+
+            285     236    1685    1670    1687    1568     548     754+
+            750     552     772     756     774     554
CHEXA        302       4     235     286     285     236     965    1016+
+           1015     966     772     756     774     554     551     757+
+            753     555    1270    1255    1272    1153
CHEXA        303       4    1427    1426    1385    1384     282     281+
+            240     239    1662    1688    1576    1689     738     734+
+            568     564     740     775     570     776
CHEXA        304       4     282     281     240     239    1012    1011+
+            970     969     740     775     570     776     741     737+
+            571     567    1247    1273    1161    1274
CHEXA        305       4    1383    1382    1429    1428     238     237+
+            284     283    1572    1686    1666    1690     560     556+
+            746     742     562     773     748     777
CHEXA        306       4     238     237     284     283     968     967+
+           1014    1013     562     773     748     777     563     559+
+            749     745    1157    1271    1251    1275
CHEXA        307       4    1427    1384    1383    1428     282     239+
+            238     283    1689    1574    1690    1664     738     564+
+            560     742     776     566     777     744
CHEXA        308       4     282     239     238     283    1012     969+
+            968    1013     776     566     777     744     741     567+
+            563     745    1274    1159    1275    1249
CHEXA        309       4    1424    1423    1388    1387     279     278+
+            243     242    1656    1691    1582    1692     726     722+
+            580     576     728     778     582     779
CHEXA        310       4     279     278     243     242    1009    1008+
+            973     972     728     778     582     779     729     725+
+            583     579    1241    1276    1167    1277
CHEXA        311       4    1386    1385    1426    1425     241     240+
+            281     280    1578    1688    1660    1693     572     568+
+            734     730     574     775     736     780
CHEXA        312       4     241     240     281     280     971     970+
+           1011    1010     574     775     736     780     575     571+
+            737     733    1163    1273    1245    1278
CHEXA        313       4    1424    1387    1386    1425     279     242+
+            241     280    1692    1580    1693    1658     726     576+
+            572     730     779     578     780     732
CHEXA        314       4     279     242     241     280    1009     972+
+            971    1010     779     578     780     732     729     579+
+            575     733    1277    1165    1278    1243
CHEXA        315       4    1420    1419    1392    1391     275     274+
+            247     246    1648    1680    1590    1694     710     706+
+            596     592     712     767     598     781
CHEXA        316       4     275     274     247     246    1005    1004+
+            977     976     712     767     598     781     713     709+
+            599     595    1233    1265    1175    1279
CHEXA        317       4    1390    1421    1420    1391     245     276+
+            275     246    1695    1650    1694    1588     588     714+
+            710     592     782     716     781     594
CHEXA        318       4     245     276     275     246     975    1006+
+           1005     976     782     716     781     594     591     717+
+            713     595    1280    1235    1279    1173
CHEXA        319       4    1389    1388    1423    1422     244     243+
+            278     277    1584    1691    1654    1696     584     580+
+            722     718     586     778     724     783
CHEXA        320       4     244     243     278     277     974     973+
+           1008    1007     586     778     724     783     587     583+
+            725     721    1169    1276    1239    1281
CHEXA        321       4    1421    1390    1389    1422     276     245+
+            244     277    1695    1586    1696    1652     714     588+
+            584     718     782     590     783     720
CHEXA        322       4     276     245     244     277    1006     975+
+            974    1007     782     590     783     720     717     591+
+            587     721    1280    1171    1281    1237
$*  NX mesh: [Bridge_f]:Bridge_Mesh(2)
CHEXA        323       4    3884    4030    3994    3245    3211    3961+
+           3626    2100    3892    3995    3361    3362    3227    3963+
+           3657    2216    3216    3655    2217    2218
CHEXA        324       4    3211    3961    3626    2100    3869    4028+
+           3930    2830    3216    3655    2217    2218    3215    3962+
+           3656    2219    3870    3931    2946    2947
CHEXA        325       4    3246    3885    3884    3245    2101    3212+
+           3211    2100    3363    3891    3362    3364    2220    3226+
+           3227    2216    2221    3218    2218    2222
CHEXA        326       4    2101    3212    3211    2100    2831    3868+
+           3869    2830    2221    3218    2218    2222    2223    3217+
+           3215    2219    2948    3871    2947    2949
CHEXA        327       4    3247    3886    3885    3246    2102    3213+
+           3212    2101    3365    3890    3363    3366    2224    3225+
+           3226    2220    2225    3220    2221    2226
CHEXA        328       4    2102    3213    3212    2101    2832    3867+
+           3868    2831    2225    3220    2221    2226    2227    3219+
+           3217    2223    2950    3872    2948    2951
CHEXA        329       4    3248    3887    3886    3247    2103    3214+
+           3213    2102    3367    3889    3365    3368    2228    3224+
+           3225    2224    2229    3222    2225    2230
CHEXA        330       4    2103    3214    3213    2102    2833    3866+
+           3867    2832    2229    3222    2225    2230    2231    3221+
+           3219    2227    2952    3873    2950    2953
CHEXA        331       4    3835    4027    3887    3248    2713    3802+
+           3214    2103    3836    3888    3367    3369    2743    3803+
+           3224    2228    2742    3223    2229    2232
CHEXA        332       4    2713    3802    3214    2103    3771    4026+
+           3866    2833    2742    3223    2229    2232    2744    3804+
+           3221    2231    3772    3874    2952    2954
CHEXA        333       4    3249    3834    3835    3248    2104    2714+
+           2713    2103    3370    3865    3369    3371    2233    2829+
+           2743    2228    2234    2746    2232    2235
CHEXA        334       4    2104    2714    2713    2103    2834    3770+
+           3771    2833    2234    2746    2232    2235    2236    2745+
+           2744    2231    2955    3773    2954    2956
CHEXA        335       4    3250    3833    3834    3249    2105    2715+
+           2714    2104    3372    3864    3370    3373    2237    2828+
+           2829    2233    2238    2748    2234    2239
CHEXA        336       4    2105    2715    2714    2104    2835    3769+
+           3770    2834    2238    2748    2234    2239    2240    2747+
+           2745    2236    2957    3774    2955    2958
CHEXA        337       4    3251    3832    3833    3250    2106    2716+
+           2715    2105    3374    3863    3372    3375    2241    2827+
+           2828    2237    2242    2750    2238    2243
CHEXA        338       4    2106    2716    2715    2105    2836    3768+
+           3769    2835    2242    2750    2238    2243    2244    2749+
+           2747    2240    2959    3775    2957    2960
CHEXA        339       4    3252    3831    3832    3251    2107    2717+
+           2716    2106    3376    3862    3374    3377    2245    2826+
+           2827    2241    2246    2752    2242    2247
CHEXA        340       4    2107    2717    2716    2106    2837    3767+
+           3768    2836    2246    2752    2242    2247    2248    2751+
+           2749    2244    2961    3776    2959    2962
CHEXA        341       4    3253    3830    3831    3252    2108    2718+
+           2717    2107    3378    3861    3376    3379    2249    2825+
+           2826    2245    2250    2754    2246    2251
CHEXA        342       4    2108    2718    2717    2107    2838    3766+
+           3767    2837    2250    2754    2246    2251    2252    2753+
+           2751    2248    2963    3777    2961    2964
CHEXA        343       4    3254    3829    3830    3253    2109    2719+
+           2718    2108    3380    3860    3378    3381    2253    2824+
+           2825    2249    2254    2756    2250    2255
CHEXA        344       4    2109    2719    2718    2108    2839    3765+
+           3766    2838    2254    2756    2250    2255    2256    2755+
+           2753    2252    2965    3778    2963    2966
CHEXA        345       4    3255    3828    3829    3254    2110    2720+
+           2719    2109    3382    3859    3380    3383    2257    2823+
+           2824    2253    2258    2758    2254    2259
CHEXA        346       4    2110    2720    2719    2109    2840    3764+
+           3765    2839    2258    2758    2254    2259    2260    2757+
+           2755    2256    2967    3779    2965    2968
CHEXA        347       4    3256    3827    3828    3255    2111    2721+
+           2720    2110    3384    3858    3382    3385    2261    2822+
+           2823    2257    2262    2760    2258    2263
CHEXA        348       4    2111    2721    2720    2110    2841    3763+
+           3764    2840    2262    2760    2258    2263    2264    2759+
+           2757    2260    2969    3780    2967    2970
CHEXA        349       4    3257    3826    3827    3256    2112    2722+
+           2721    2111    3386    3857    3384    3387    2265    2821+
+           2822    2261    2266    2762    2262    2267
CHEXA        350       4    2112    2722    2721    2111    2842    3762+
+           3763    2841    2266    2762    2262    2267    2268    2761+
+           2759    2264    2971    3781    2969    2972
CHEXA        351       4    3258    3825    3826    3257    2113    2723+
+           2722    2112    3388    3856    3386    3389    2269    2820+
+           2821    2265    2270    2764    2266    2271
CHEXA        352       4    2113    2723    2722    2112    2843    3761+
+           3762    2842    2270    2764    2266    2271    2272    2763+
+           2761    2268    2973    3782    2971    2974
CHEXA        353       4    3259    3824    3825    3258    2114    2724+
+           2723    2113    3390    3855    3388    3391    2273    2819+
+           2820    2269    2274    2766    2270    2275
CHEXA        354       4    2114    2724    2723    2113    2844    3760+
+           3761    2843    2274    2766    2270    2275    2276    2765+
+           2763    2272    2975    3783    2973    2976
CHEXA        355       4    3260    3823    3824    3259    2115    2725+
+           2724    2114    3392    3854    3390    3393    2277    2818+
+           2819    2273    2278    2768    2274    2279
CHEXA        356       4    2115    2725    2724    2114    2845    3759+
+           3760    2844    2278    2768    2274    2279    2280    2767+
+           2765    2276    2977    3784    2975    2978
CHEXA        357       4    3261    3822    3823    3260    2116    2726+
+           2725    2115    3394    3853    3392    3395    2281    2817+
+           2818    2277    2282    2770    2278    2283
CHEXA        358       4    2116    2726    2725    2115    2846    3758+
+           3759    2845    2282    2770    2278    2283    2284    2769+
+           2767    2280    2979    3785    2977    2980
CHEXA        359       4    3262     116    3822    3261    2117    2727+
+           2726    2116    3396    3852    3394    3397    2285    2816+
+           2817    2281    2286    2772    2282    2287
CHEXA        360       4    2117    2727    2726    2116    2847    3757+
+           3758    2846    2286    2772    2282    2287    2288    2771+
+           2769    2284    2981    3786    2979    2982
CHEXA        361       4    3263    3821     116    3262    2118    2728+
+           2727    2117    3398    3851    3396    3399    2289    2815+
+           2816    2285    2290    2774    2286    2291
CHEXA        362       4    2118    2728    2727    2117    2848    3756+
+           3757    2847    2290    2774    2286    2291    2292    2773+
+           2771    2288    2983    3787    2981    2984
CHEXA        363       4    3264    3820    3821    3263    2119    2729+
+           2728    2118    3400    3850    3398    3401    2293    2814+
+           2815    2289    2294    2776    2290    2295
CHEXA        364       4    2119    2729    2728    2118    2849    3755+
+           3756    2848    2294    2776    2290    2295    2296    2775+
+           2773    2292    2985    3788    2983    2986
CHEXA        365       4    3265    3819    3820    3264    2120    2730+
+           2729    2119    3402    3849    3400    3403    2297    2813+
+           2814    2293    2298    2778    2294    2299
CHEXA        366       4    2120    2730    2729    2119    2850    3754+
+           3755    2849    2298    2778    2294    2299    2300    2777+
+           2775    2296    2987    3789    2985    2988
CHEXA        367       4    3266    3818    3819    3265    2121    2731+
+           2730    2120    3404    3848    3402    3405    2301    2812+
+           2813    2297    2302    2780    2298    2303
CHEXA        368       4    2121    2731    2730    2120    2851    3753+
+           3754    2850    2302    2780    2298    2303    2304    2779+
+           2777    2300    2989    3790    2987    2990
CHEXA        369       4    3267    3817    3818    3266    2122    2732+
+           2731    2121    3406    3847    3404    3407    2305    2811+
+           2812    2301    2306    2782    2302    2307
CHEXA        370       4    2122    2732    2731    2121    2852    3752+
+           3753    2851    2306    2782    2302    2307    2308    2781+
+           2779    2304    2991    3791    2989    2992
CHEXA        371       4    3268    3816    3817    3267    2123    2733+
+           2732    2122    3408    3846    3406    3409    2309    2810+
+           2811    2305    2310    2784    2306    2311
CHEXA        372       4    2123    2733    2732    2122    2853    3751+
+           3752    2852    2310    2784    2306    2311    2312    2783+
+           2781    2308    2993    3792    2991    2994
CHEXA        373       4    3269    3815    3816    3268    2124    2734+
+           2733    2123    3410    3845    3408    3411    2313    2809+
+           2810    2309    2314    2786    2310    2315
CHEXA        374       4    2124    2734    2733    2123    2854    3750+
+           3751    2853    2314    2786    2310    2315    2316    2785+
+           2783    2312    2995    3793    2993    2996
CHEXA        375       4    3270    3814    3815    3269    2125    2735+
+           2734    2124    3412    3844    3410    3413    2317    2808+
+           2809    2313    2318    2788    2314    2319
CHEXA        376       4    2125    2735    2734    2124    2855    3749+
+           3750    2854    2318    2788    2314    2319    2320    2787+
+           2785    2316    2997    3794    2995    2998
CHEXA        377       4    3271    3813    3814    3270    2126    2736+
+           2735    2125    3414    3843    3412    3415    2321    2807+
+           2808    2317    2322    2790    2318    2323
CHEXA        378       4    2126    2736    2735    2125    2856    3748+
+           3749    2855    2322    2790    2318    2323    2324    2789+
+           2787    2320    2999    3795    2997    3000
CHEXA        379       4    3272    3812    3813    3271    2127    2737+
+           2736    2126    3416    3842    3414    3417    2325    2806+
+           2807    2321    2326    2792    2322    2327
CHEXA        380       4    2127    2737    2736    2126    2857    3747+
+           3748    2856    2326    2792    2322    2327    2328    2791+
+           2789    2324    3001    3796    2999    3002
CHEXA        381       4    3273    3811    3812    3272    2128    2738+
+           2737    2127    3418    3841    3416    3419    2329    2805+
+           2806    2325    2330    2794    2326    2331
CHEXA        382       4    2128    2738    2737    2127    2858    3746+
+           3747    2857    2330    2794    2326    2331    2332    2793+
+           2791    2328    3003    3797    3001    3004
CHEXA        383       4    3274    3810    3811    3273    2129    2739+
+           2738    2128    3420    3840    3418    3421    2333    2804+
+           2805    2329    2334    2796    2330    2335
CHEXA        384       4    2129    2739    2738    2128    2859    3745+
+           3746    2858    2334    2796    2330    2335    2336    2795+
+           2793    2332    3005    3798    3003    3006
CHEXA        385       4    3275    3809    3810    3274    2130    2740+
+           2739    2129    3422    3839    3420    3423    2337    2803+
+           2804    2333    2338    2798    2334    2339
CHEXA        386       4    2130    2740    2739    2129    2860    3744+
+           3745    2859    2338    2798    2334    2339    2340    2797+
+           2795    2336    3007    3799    3005    3008
CHEXA        387       4    3276    3808    3809    3275    2131    2741+
+           2740    2130    3424    3838    3422    3425    2341    2802+
+           2803    2337    2342    2800    2338    2343
CHEXA        388       4    2131    2741    2740    2130    2861    3743+
+           3744    2860    2342    2800    2338    2343    2344    2799+
+           2797    2340    3009    3800    3007    3010
CHEXA        389       4    3896     156    3808    3276    3228    3805+
+           2741    2131    3901    3837    3424    3426    3244    3807+
+           2802    2341    3233    2801    2342    2345
CHEXA        390       4    3228    3805    2741    2131    3875    4025+
+           3743    2861    3233    2801    2342    2345    3232    3806+
+           2799    2344    3879    3801    3009    3011
CHEXA        391       4    3277    3895    3896    3276    2132    3229+
+           3228    2131    3427    3900    3426    3428    2346    3243+
+           3244    2341    2347    3235    2345    2348
CHEXA        392       4    2132    3229    3228    2131    2862    3876+
+           3875    2861    2347    3235    2345    2348    2349    3234+
+           3232    2344    3012    3880    3011    3013
CHEXA        393       4    3278    3894    3895    3277    2133    3230+
+           3229    2132    3429    3899    3427    3430    2350    3242+
+           3243    2346    2351    3237    2347    2352
CHEXA        394       4    2133    3230    3229    2132    2863    3877+
+           3876    2862    2351    3237    2347    2352    2353    3236+
+           3234    2349    3014    3881    3012    3015
CHEXA        395       4    3279    3893    3894    3278    2134    3231+
+           3230    2133    3431    3898    3429    3432    2354    3241+
+           3242    2350    2355    3239    2351    2356
CHEXA        396       4    2134    3231    3230    2133    2864    3878+
+           3877    2863    2355    3239    2351    2356    2357    3238+
+           3236    2353    3016    3882    3014    3017
CHEXA        397       4    3967     160    3893    3279    3654    3964+
+           3231    2134    3996    3897    3431    3433    3712    3966+
+           3241    2354    3714    3240    2355    2358
CHEXA        398       4    3654    3964    3231    2134    3902    4029+
+           3878    2864    3714    3240    2355    2358    3715    3965+
+           3238    2357    3932    3883    3016    3018
CHEXA        399       4    3280    3968    3967    3279    2135    3653+
+           3654    2134    3434    3997    3433    3435    2359    3710+
+           3712    2354    2360    3713    2358    2361
CHEXA        400       4    2135    3653    3654    2134    2865    3903+
+           3902    2864    2360    3713    2358    2361    2362    3716+
+           3715    2357    3019    3933    3018    3020
CHEXA        401       4    3281    3969    3968    3280    2136    3652+
+           3653    2135    3436    3998    3434    3437    2363    3708+
+           3710    2359    2364    3711    2360    2365
CHEXA        402       4    2136    3652    3653    2135    2866    3904+
+           3903    2865    2364    3711    2360    2365    2366    3717+
+           3716    2362    3021    3934    3019    3022
CHEXA        403       4    3282    3970    3969    3281    2137    3651+
+           3652    2136    3438    3999    3436    3439    2367    3706+
+           3708    2363    2368    3709    2364    2369
CHEXA        404       4    2137    3651    3652    2136    2867    3905+
+           3904    2866    2368    3709    2364    2369    2370    3718+
+           3717    2366    3023    3935    3021    3024
CHEXA        405       4    3283    3971    3970    3282    2138    3650+
+           3651    2137    3440    4000    3438    3441    2371    3704+
+           3706    2367    2372    3707    2368    2373
CHEXA        406       4    2138    3650    3651    2137    2868    3906+
+           3905    2867    2372    3707    2368    2373    2374    3719+
+           3718    2370    3025    3936    3023    3026
CHEXA        407       4    3284    3972    3971    3283    2139    3649+
+           3650    2138    3442    4001    3440    3443    2375    3702+
+           3704    2371    2376    3705    2372    2377
CHEXA        408       4    2139    3649    3650    2138    2869    3907+
+           3906    2868    2376    3705    2372    2377    2378    3720+
+           3719    2374    3027    3937    3025    3028
CHEXA        409       4    3285    3973    3972    3284    2140    3648+
+           3649    2139    3444    4002    3442    3445    2379    3700+
+           3702    2375    2380    3703    2376    2381
CHEXA        410       4    2140    3648    3649    2139    2870    3908+
+           3907    2869    2380    3703    2376    2381    2382    3721+
+           3720    2378    3029    3938    3027    3030
CHEXA        411       4    3286    3974    3973    3285    2141    3647+
+           3648    2140    3446    4003    3444    3447    2383    3698+
+           3700    2379    2384    3701    2380    2385
CHEXA        412       4    2141    3647    3648    2140    2871    3909+
+           3908    2870    2384    3701    2380    2385    2386    3722+
+           3721    2382    3031    3939    3029    3032
CHEXA        413       4    3287    3975    3974    3286    2142    3646+
+           3647    2141    3448    4004    3446    3449    2387    3696+
+           3698    2383    2388    3699    2384    2389
CHEXA        414       4    2142    3646    3647    2141    2872    3910+
+           3909    2871    2388    3699    2384    2389    2390    3723+
+           3722    2386    3033    3940    3031    3034
CHEXA        415       4    3288    3976    3975    3287    2143    3645+
+           3646    2142    3450    4005    3448    3451    2391    3694+
+           3696    2387    2392    3697    2388    2393
CHEXA        416       4    2143    3645    3646    2142    2873    3911+
+           3910    2872    2392    3697    2388    2393    2394    3724+
+           3723    2390    3035    3941    3033    3036
CHEXA        417       4    3289    3977    3976    3288    2144    3644+
+           3645    2143    3452    4006    3450    3453    2395    3692+
+           3694    2391    2396    3695    2392    2397
CHEXA        418       4    2144    3644    3645    2143    2874    3912+
+           3911    2873    2396    3695    2392    2397    2398    3725+
+           3724    2394    3037    3942    3035    3038
CHEXA        419       4    3290    3978    3977    3289    2145    3643+
+           3644    2144    3454    4007    3452    3455    2399    3690+
+           3692    2395    2400    3693    2396    2401
CHEXA        420       4    2145    3643    3644    2144    2875    3913+
+           3912    2874    2400    3693    2396    2401    2402    3726+
+           3725    2398    3039    3943    3037    3040
CHEXA        421       4    3291    3979    3978    3290    2146    3642+
+           3643    2145    3456    4008    3454    3457    2403    3688+
+           3690    2399    2404    3691    2400    2405
CHEXA        422       4    2146    3642    3643    2145    2876    3914+
+           3913    2875    2404    3691    2400    2405    2406    3727+
+           3726    2402    3041    3944    3039    3042
CHEXA        423       4    3292    3980    3979    3291    2147    3641+
+           3642    2146    3458    4009    3456    3459    2407    3686+
+           3688    2403    2408    3689    2404    2409
CHEXA        424       4    2147    3641    3642    2146    2877    3915+
+           3914    2876    2408    3689    2404    2409    2410    3728+
+           3727    2406    3043    3945    3041    3044
CHEXA        425       4    3293     144    3980    3292    2148    3640+
+           3641    2147    3460    4010    3458    3461    2411    3684+
+           3686    2407    2412    3687    2408    2413
CHEXA        426       4    2148    3640    3641    2147    2878    3916+
+           3915    2877    2412    3687    2408    2413    2414    3729+
+           3728    2410    3045    3946    3043    3046
CHEXA        427       4    3294    3981     144    3293    2149    3639+
+           3640    2148    3462    4011    3460    3463    2415    3682+
+           3684    2411    2416    3685    2412    2417
CHEXA        428       4    2149    3639    3640    2148    2879    3917+
+           3916    2878    2416    3685    2412    2417    2418    3730+
+           3729    2414    3047    3947    3045    3048
CHEXA        429       4    3295    3982    3981    3294    2150    3638+
+           3639    2149    3464    4012    3462    3465    2419    3680+
+           3682    2415    2420    3683    2416    2421
CHEXA        430       4    2150    3638    3639    2149    2880    3918+
+           3917    2879    2420    3683    2416    2421    2422    3731+
+           3730    2418    3049    3948    3047    3050
CHEXA        431       4    3296    3983    3982    3295    2151    3637+
+           3638    2150    3466    4013    3464    3467    2423    3678+
+           3680    2419    2424    3681    2420    2425
CHEXA        432       4    2151    3637    3638    2150    2881    3919+
+           3918    2880    2424    3681    2420    2425    2426    3732+
+           3731    2422    3051    3949    3049    3052
CHEXA        433       4    3297    3984    3983    3296    2152    3636+
+           3637    2151    3468    4014    3466    3469    2427    3676+
+           3678    2423    2428    3679    2424    2429
CHEXA        434       4    2152    3636    3637    2151    2882    3920+
+           3919    2881    2428    3679    2424    2429    2430    3733+
+           3732    2426    3053    3950    3051    3054
CHEXA        435       4    3298    3985    3984    3297    2153    3635+
+           3636    2152    3470    4015    3468    3471    2431    3674+
+           3676    2427    2432    3677    2428    2433
CHEXA        436       4    2153    3635    3636    2152    2883    3921+
+           3920    2882    2432    3677    2428    2433    2434    3734+
+           3733    2430    3055    3951    3053    3056
CHEXA        437       4    3299    3986    3985    3298    2154    3634+
+           3635    2153    3472    4016    3470    3473    2435    3672+
+           3674    2431    2436    3675    2432    2437
CHEXA        438       4    2154    3634    3635    2153    2884    3922+
+           3921    2883    2436    3675    2432    2437    2438    3735+
+           3734    2434    3057    3952    3055    3058
CHEXA        439       4    3300    3987    3986    3299    2155    3633+
+           3634    2154    3474    4017    3472    3475    2439    3670+
+           3672    2435    2440    3673    2436    2441
CHEXA        440       4    2155    3633    3634    2154    2885    3923+
+           3922    2884    2440    3673    2436    2441    2442    3736+
+           3735    2438    3059    3953    3057    3060
CHEXA        441       4    3301    3988    3987    3300    2156    3632+
+           3633    2155    3476    4018    3474    3477    2443    3668+
+           3670    2439    2444    3671    2440    2445
CHEXA        442       4    2156    3632    3633    2155    2886    3924+
+           3923    2885    2444    3671    2440    2445    2446    3737+
+           3736    2442    3061    3954    3059    3062
CHEXA        443       4    3302    3989    3988    3301    2157    3631+
+           3632    2156    3478    4019    3476    3479    2447    3666+
+           3668    2443    2448    3669    2444    2449
CHEXA        444       4    2157    3631    3632    2156    2887    3925+
+           3924    2886    2448    3669    2444    2449    2450    3738+
+           3737    2446    3063    3955    3061    3064
CHEXA        445       4    3303    3990    3989    3302    2158    3630+
+           3631    2157    3480    4020    3478    3481    2451    3664+
+           3666    2447    2452    3667    2448    2453
CHEXA        446       4    2158    3630    3631    2157    2888    3926+
+           3925    2887    2452    3667    2448    2453    2454    3739+
+           3738    2450    3065    3956    3063    3066
CHEXA        447       4    3304    3991    3990    3303    2159    3629+
+           3630    2158    3482    4021    3480    3483    2455    3662+
+           3664    2451    2456    3665    2452    2457
CHEXA        448       4    2159    3629    3630    2158    2889    3927+
+           3926    2888    2456    3665    2452    2457    2458    3740+
+           3739    2454    3067    3957    3065    3068
CHEXA        449       4    3305    3992    3991    3304    2160    3628+
+           3629    2159    3484    4022    3482    3485    2459    3660+
+           3662    2455    2460    3663    2456    2461
CHEXA        450       4    2160    3628    3629    2159    2890    3928+
+           3927    2889    2460    3663    2456    2461    2462    3741+
+           3740    2458    3069    3958    3067    3070
CHEXA        451       4    3306    3993    3992    3305    2161    3627+
+           3628    2160    3486    4023    3484    3487    2463    3658+
+           3660    2459    2464    3661    2460    2465
CHEXA        452       4    2161    3627    3628    2160    2891    3929+
+           3928    2890    2464    3661    2460    2465    2466    3742+
+           3741    2462    3071    3959    3069    3072
CHEXA        453       4    3245    3994    3993    3306    2100    3626+
+           3627    2161    3361    4024    3486    3488    2216    3657+
+           3658    2463    2217    3659    2464    2467
CHEXA        454       4    2100    3626    3627    2161    2830    3930+
+           3929    2891    2217    3659    2464    2467    2219    3656+
+           3742    2466    2946    3960    3071    3073
CHEXA        455       4    3246    3245    3306    3307    2101    2100+
+           2161    2162    3364    3488    3489    3490    2220    2216+
+           2463    2468    2222    2467    2469    2470
CHEXA        456       4    2101    2100    2161    2162    2831    2830+
+           2891    2892    2222    2467    2469    2470    2223    2219+
+           2466    2471    2949    3073    3074    3075
CHEXA        457       4    3308    3247    3246    3307    2163    2102+
+           2101    2162    3491    3366    3490    3492    2472    2224+
+           2220    2468    2473    2226    2470    2474
CHEXA        458       4    2163    2102    2101    2162    2893    2832+
+           2831    2892    2473    2226    2470    2474    2475    2227+
+           2223    2471    3076    2951    3075    3077
CHEXA        459       4    3249    3248    3247    3308    2104    2103+
+           2102    2163    3371    3368    3491    3493    2233    2228+
+           2224    2472    2235    2230    2473    2476
CHEXA        460       4    2104    2103    2102    2163    2834    2833+
+           2832    2893    2235    2230    2473    2476    2236    2231+
+           2227    2475    2956    2953    3076    3078
CHEXA        461       4    3309    3250    3249    3308    2164    2105+
+           2104    2163    3494    3373    3493    3495    2477    2237+
+           2233    2472    2478    2239    2476    2479
CHEXA        462       4    2164    2105    2104    2163    2894    2835+
+           2834    2893    2478    2239    2476    2479    2480    2240+
+           2236    2475    3079    2958    3078    3080
CHEXA        463       4    3310    3251    3250    3309    2165    2106+
+           2105    2164    3496    3375    3494    3497    2481    2241+
+           2237    2477    2482    2243    2478    2483
CHEXA        464       4    2165    2106    2105    2164    2895    2836+
+           2835    2894    2482    2243    2478    2483    2484    2244+
+           2240    2480    3081    2960    3079    3082
CHEXA        465       4    3311    3252    3251    3310    2166    2107+
+           2106    2165    3498    3377    3496    3499    2485    2245+
+           2241    2481    2486    2247    2482    2487
CHEXA        466       4    2166    2107    2106    2165    2896    2837+
+           2836    2895    2486    2247    2482    2487    2488    2248+
+           2244    2484    3083    2962    3081    3084
CHEXA        467       4    3312    3253    3252    3311    2167    2108+
+           2107    2166    3500    3379    3498    3501    2489    2249+
+           2245    2485    2490    2251    2486    2491
CHEXA        468       4    2167    2108    2107    2166    2897    2838+
+           2837    2896    2490    2251    2486    2491    2492    2252+
+           2248    2488    3085    2964    3083    3086
CHEXA        469       4    3313    3254    3253    3312    2168    2109+
+           2108    2167    3502    3381    3500    3503    2493    2253+
+           2249    2489    2494    2255    2490    2495
CHEXA        470       4    2168    2109    2108    2167    2898    2839+
+           2838    2897    2494    2255    2490    2495    2496    2256+
+           2252    2492    3087    2966    3085    3088
CHEXA        471       4    3314    3255    3254    3313    2169    2110+
+           2109    2168    3504    3383    3502    3505    2497    2257+
+           2253    2493    2498    2259    2494    2499
CHEXA        472       4    2169    2110    2109    2168    2899    2840+
+           2839    2898    2498    2259    2494    2499    2500    2260+
+           2256    2496    3089    2968    3087    3090
CHEXA        473       4    3315    3256    3255    3314    2170    2111+
+           2110    2169    3506    3385    3504    3507    2501    2261+
+           2257    2497    2502    2263    2498    2503
CHEXA        474       4    2170    2111    2110    2169    2900    2841+
+           2840    2899    2502    2263    2498    2503    2504    2264+
+           2260    2500    3091    2970    3089    3092
CHEXA        475       4    3316    3257    3256    3315    2171    2112+
+           2111    2170    3508    3387    3506    3509    2505    2265+
+           2261    2501    2506    2267    2502    2507
CHEXA        476       4    2171    2112    2111    2170    2901    2842+
+           2841    2900    2506    2267    2502    2507    2508    2268+
+           2264    2504    3093    2972    3091    3094
CHEXA        477       4    3317    3258    3257    3316    2172    2113+
+           2112    2171    3510    3389    3508    3511    2509    2269+
+           2265    2505    2510    2271    2506    2511
CHEXA        478       4    2172    2113    2112    2171    2902    2843+
+           2842    2901    2510    2271    2506    2511    2512    2272+
+           2268    2508    3095    2974    3093    3096
CHEXA        479       4    3318    3259    3258    3317    2173    2114+
+           2113    2172    3512    3391    3510    3513    2513    2273+
+           2269    2509    2514    2275    2510    2515
CHEXA        480       4    2173    2114    2113    2172    2903    2844+
+           2843    2902    2514    2275    2510    2515    2516    2276+
+           2272    2512    3097    2976    3095    3098
CHEXA        481       4    3319    3260    3259    3318    2174    2115+
+           2114    2173    3514    3393    3512    3515    2517    2277+
+           2273    2513    2518    2279    2514    2519
CHEXA        482       4    2174    2115    2114    2173    2904    2845+
+           2844    2903    2518    2279    2514    2519    2520    2280+
+           2276    2516    3099    2978    3097    3100
CHEXA        483       4    3320    3261    3260    3319    2175    2116+
+           2115    2174    3516    3395    3514    3517    2521    2281+
+           2277    2517    2522    2283    2518    2523
CHEXA        484       4    2175    2116    2115    2174    2905    2846+
+           2845    2904    2522    2283    2518    2523    2524    2284+
+           2280    2520    3101    2980    3099    3102
CHEXA        485       4    3321    3262    3261    3320    2176    2117+
+           2116    2175    3518    3397    3516    3519    2525    2285+
+           2281    2521    2526    2287    2522    2527
CHEXA        486       4    2176    2117    2116    2175    2906    2847+
+           2846    2905    2526    2287    2522    2527    2528    2288+
+           2284    2524    3103    2982    3101    3104
CHEXA        487       4    3322    3263    3262    3321    2177    2118+
+           2117    2176    3520    3399    3518    3521    2529    2289+
+           2285    2525    2530    2291    2526    2531
CHEXA        488       4    2177    2118    2117    2176    2907    2848+
+           2847    2906    2530    2291    2526    2531    2532    2292+
+           2288    2528    3105    2984    3103    3106
CHEXA        489       4    3323    3264    3263    3322    2178    2119+
+           2118    2177    3522    3401    3520    3523    2533    2293+
+           2289    2529    2534    2295    2530    2535
CHEXA        490       4    2178    2119    2118    2177    2908    2849+
+           2848    2907    2534    2295    2530    2535    2536    2296+
+           2292    2532    3107    2986    3105    3108
CHEXA        491       4    3324    3265    3264    3323    2179    2120+
+           2119    2178    3524    3403    3522    3525    2537    2297+
+           2293    2533    2538    2299    2534    2539
CHEXA        492       4    2179    2120    2119    2178    2909    2850+
+           2849    2908    2538    2299    2534    2539    2540    2300+
+           2296    2536    3109    2988    3107    3110
CHEXA        493       4    3325    3266    3265    3324    2180    2121+
+           2120    2179    3526    3405    3524    3527    2541    2301+
+           2297    2537    2542    2303    2538    2543
CHEXA        494       4    2180    2121    2120    2179    2910    2851+
+           2850    2909    2542    2303    2538    2543    2544    2304+
+           2300    2540    3111    2990    3109    3112
CHEXA        495       4    3326    3267    3266    3325    2181    2122+
+           2121    2180    3528    3407    3526    3529    2545    2305+
+           2301    2541    2546    2307    2542    2547
CHEXA        496       4    2181    2122    2121    2180    2911    2852+
+           2851    2910    2546    2307    2542    2547    2548    2308+
+           2304    2544    3113    2992    3111    3114
CHEXA        497       4    3327    3268    3267    3326    2182    2123+
+           2122    2181    3530    3409    3528    3531    2549    2309+
+           2305    2545    2550    2311    2546    2551
CHEXA        498       4    2182    2123    2122    2181    2912    2853+
+           2852    2911    2550    2311    2546    2551    2552    2312+
+           2308    2548    3115    2994    3113    3116
CHEXA        499       4    3328    3269    3268    3327    2183    2124+
+           2123    2182    3532    3411    3530    3533    2553    2313+
+           2309    2549    2554    2315    2550    2555
CHEXA        500       4    2183    2124    2123    2182    2913    2854+
+           2853    2912    2554    2315    2550    2555    2556    2316+
+           2312    2552    3117    2996    3115    3118
CHEXA        501       4    3329    3270    3269    3328    2184    2125+
+           2124    2183    3534    3413    3532    3535    2557    2317+
+           2313    2553    2558    2319    2554    2559
CHEXA        502       4    2184    2125    2124    2183    2914    2855+
+           2854    2913    2558    2319    2554    2559    2560    2320+
+           2316    2556    3119    2998    3117    3120
CHEXA        503       4    3330    3271    3270    3329    2185    2126+
+           2125    2184    3536    3415    3534    3537    2561    2321+
+           2317    2557    2562    2323    2558    2563
CHEXA        504       4    2185    2126    2125    2184    2915    2856+
+           2855    2914    2562    2323    2558    2563    2564    2324+
+           2320    2560    3121    3000    3119    3122
CHEXA        505       4    3331    3272    3271    3330    2186    2127+
+           2126    2185    3538    3417    3536    3539    2565    2325+
+           2321    2561    2566    2327    2562    2567
CHEXA        506       4    2186    2127    2126    2185    2916    2857+
+           2856    2915    2566    2327    2562    2567    2568    2328+
+           2324    2564    3123    3002    3121    3124
CHEXA        507       4    3332    3273    3272    3331    2187    2128+
+           2127    2186    3540    3419    3538    3541    2569    2329+
+           2325    2565    2570    2331    2566    2571
CHEXA        508       4    2187    2128    2127    2186    2917    2858+
+           2857    2916    2570    2331    2566    2571    2572    2332+
+           2328    2568    3125    3004    3123    3126
CHEXA        509       4    3333    3274    3273    3332    2188    2129+
+           2128    2187    3542    3421    3540    3543    2573    2333+
+           2329    2569    2574    2335    2570    2575
CHEXA        510       4    2188    2129    2128    2187    2918    2859+
+           2858    2917    2574    2335    2570    2575    2576    2336+
+           2332    2572    3127    3006    3125    3128
CHEXA        511       4    3334    3275    3274    3333    2189    2130+
+           2129    2188    3544    3423    3542    3545    2577    2337+
+           2333    2573    2578    2339    2574    2579
CHEXA        512       4    2189    2130    2129    2188    2919    2860+
+           2859    2918    2578    2339    2574    2579    2580    2340+
+           2336    2576    3129    3008    3127    3130
CHEXA        513       4    3277    3276    3275    3334    2132    2131+
+           2130    2189    3428    3425    3544    3546    2346    2341+
+           2337    2577    2348    2343    2578    2581
CHEXA        514       4    2132    2131    2130    2189    2862    2861+
+           2860    2919    2348    2343    2578    2581    2349    2344+
+           2340    2580    3013    3010    3129    3131
CHEXA        515       4    3335    3278    3277    3334    2190    2133+
+           2132    2189    3547    3430    3546    3548    2582    2350+
+           2346    2577    2583    2352    2581    2584
CHEXA        516       4    2190    2133    2132    2189    2920    2863+
+           2862    2919    2583    2352    2581    2584    2585    2353+
+           2349    2580    3132    3015    3131    3133
CHEXA        517       4    3280    3279    3278    3335    2135    2134+
+           2133    2190    3435    3432    3547    3549    2359    2354+
+           2350    2582    2361    2356    2583    2586
CHEXA        518       4    2135    2134    2133    2190    2865    2864+
+           2863    2920    2361    2356    2583    2586    2362    2357+
+           2353    2585    3020    3017    3132    3134
CHEXA        519       4    3336    3281    3280    3335    2191    2136+
+           2135    2190    3550    3437    3549    3551    2587    2363+
+           2359    2582    2588    2365    2586    2589
CHEXA        520       4    2191    2136    2135    2190    2921    2866+
+           2865    2920    2588    2365    2586    2589    2590    2366+
+           2362    2585    3135    3022    3134    3136
CHEXA        521       4    3337    3282    3281    3336    2192    2137+
+           2136    2191    3552    3439    3550    3553    2591    2367+
+           2363    2587    2592    2369    2588    2593
CHEXA        522       4    2192    2137    2136    2191    2922    2867+
+           2866    2921    2592    2369    2588    2593    2594    2370+
+           2366    2590    3137    3024    3135    3138
CHEXA        523       4    3338    3283    3282    3337    2193    2138+
+           2137    2192    3554    3441    3552    3555    2595    2371+
+           2367    2591    2596    2373    2592    2597
CHEXA        524       4    2193    2138    2137    2192    2923    2868+
+           2867    2922    2596    2373    2592    2597    2598    2374+
+           2370    2594    3139    3026    3137    3140
CHEXA        525       4    3339    3284    3283    3338    2194    2139+
+           2138    2193    3556    3443    3554    3557    2599    2375+
+           2371    2595    2600    2377    2596    2601
CHEXA        526       4    2194    2139    2138    2193    2924    2869+
+           2868    2923    2600    2377    2596    2601    2602    2378+
+           2374    2598    3141    3028    3139    3142
CHEXA        527       4    3340    3285    3284    3339    2195    2140+
+           2139    2194    3558    3445    3556    3559    2603    2379+
+           2375    2599    2604    2381    2600    2605
CHEXA        528       4    2195    2140    2139    2194    2925    2870+
+           2869    2924    2604    2381    2600    2605    2606    2382+
+           2378    2602    3143    3030    3141    3144
CHEXA        529       4    3341    3286    3285    3340    2196    2141+
+           2140    2195    3560    3447    3558    3561    2607    2383+
+           2379    2603    2608    2385    2604    2609
CHEXA        530       4    2196    2141    2140    2195    2926    2871+
+           2870    2925    2608    2385    2604    2609    2610    2386+
+           2382    2606    3145    3032    3143    3146
CHEXA        531       4    3342    3287    3286    3341    2197    2142+
+           2141    2196    3562    3449    3560    3563    2611    2387+
+           2383    2607    2612    2389    2608    2613
CHEXA        532       4    2197    2142    2141    2196    2927    2872+
+           2871    2926    2612    2389    2608    2613    2614    2390+
+           2386    2610    3147    3034    3145    3148
CHEXA        533       4    3343    3288    3287    3342    2198    2143+
+           2142    2197    3564    3451    3562    3565    2615    2391+
+           2387    2611    2616    2393    2612    2617
CHEXA        534       4    2198    2143    2142    2197    2928    2873+
+           2872    2927    2616    2393    2612    2617    2618    2394+
+           2390    2614    3149    3036    3147    3150
CHEXA        535       4    3344    3289    3288    3343    2199    2144+
+           2143    2198    3566    3453    3564    3567    2619    2395+
+           2391    2615    2620    2397    2616    2621
CHEXA        536       4    2199    2144    2143    2198    2929    2874+
+           2873    2928    2620    2397    2616    2621    2622    2398+
+           2394    2618    3151    3038    3149    3152
CHEXA        537       4    3345    3290    3289    3344    2200    2145+
+           2144    2199    3568    3455    3566    3569    2623    2399+
+           2395    2619    2624    2401    2620    2625
CHEXA        538       4    2200    2145    2144    2199    2930    2875+
+           2874    2929    2624    2401    2620    2625    2626    2402+
+           2398    2622    3153    3040    3151    3154
CHEXA        539       4    3346    3291    3290    3345    2201    2146+
+           2145    2200    3570    3457    3568    3571    2627    2403+
+           2399    2623    2628    2405    2624    2629
CHEXA        540       4    2201    2146    2145    2200    2931    2876+
+           2875    2930    2628    2405    2624    2629    2630    2406+
+           2402    2626    3155    3042    3153    3156
CHEXA        541       4    3347    3292    3291    3346    2202    2147+
+           2146    2201    3572    3459    3570    3573    2631    2407+
+           2403    2627    2632    2409    2628    2633
CHEXA        542       4    2202    2147    2146    2201    2932    2877+
+           2876    2931    2632    2409    2628    2633    2634    2410+
+           2406    2630    3157    3044    3155    3158
CHEXA        543       4    3348    3293    3292    3347    2203    2148+
+           2147    2202    3574    3461    3572    3575    2635    2411+
+           2407    2631    2636    2413    2632    2637
CHEXA        544       4    2203    2148    2147    2202    2933    2878+
+           2877    2932    2636    2413    2632    2637    2638    2414+
+           2410    2634    3159    3046    3157    3160
CHEXA        545       4    3349    3294    3293    3348    2204    2149+
+           2148    2203    3576    3463    3574    3577    2639    2415+
+           2411    2635    2640    2417    2636    2641
CHEXA        546       4    2204    2149    2148    2203    2934    2879+
+           2878    2933    2640    2417    2636    2641    2642    2418+
+           2414    2638    3161    3048    3159    3162
CHEXA        547       4    3350    3295    3294    3349    2205    2150+
+           2149    2204    3578    3465    3576    3579    2643    2419+
+           2415    2639    2644    2421    2640    2645
CHEXA        548       4    2205    2150    2149    2204    2935    2880+
+           2879    2934    2644    2421    2640    2645    2646    2422+
+           2418    2642    3163    3050    3161    3164
CHEXA        549       4    3351    3296    3295    3350    2206    2151+
+           2150    2205    3580    3467    3578    3581    2647    2423+
+           2419    2643    2648    2425    2644    2649
CHEXA        550       4    2206    2151    2150    2205    2936    2881+
+           2880    2935    2648    2425    2644    2649    2650    2426+
+           2422    2646    3165    3052    3163    3166
CHEXA        551       4    3352    3297    3296    3351    2207    2152+
+           2151    2206    3582    3469    3580    3583    2651    2427+
+           2423    2647    2652    2429    2648    2653
CHEXA        552       4    2207    2152    2151    2206    2937    2882+
+           2881    2936    2652    2429    2648    2653    2654    2430+
+           2426    2650    3167    3054    3165    3168
CHEXA        553       4    3353    3298    3297    3352    2208    2153+
+           2152    2207    3584    3471    3582    3585    2655    2431+
+           2427    2651    2656    2433    2652    2657
CHEXA        554       4    2208    2153    2152    2207    2938    2883+
+           2882    2937    2656    2433    2652    2657    2658    2434+
+           2430    2654    3169    3056    3167    3170
CHEXA        555       4    3354    3299    3298    3353    2209    2154+
+           2153    2208    3586    3473    3584    3587    2659    2435+
+           2431    2655    2660    2437    2656    2661
CHEXA        556       4    2209    2154    2153    2208    2939    2884+
+           2883    2938    2660    2437    2656    2661    2662    2438+
+           2434    2658    3171    3058    3169    3172
CHEXA        557       4    3355    3300    3299    3354    2210    2155+
+           2154    2209    3588    3475    3586    3589    2663    2439+
+           2435    2659    2664    2441    2660    2665
CHEXA        558       4    2210    2155    2154    2209    2940    2885+
+           2884    2939    2664    2441    2660    2665    2666    2442+
+           2438    2662    3173    3060    3171    3174
CHEXA        559       4    3356    3301    3300    3355    2211    2156+
+           2155    2210    3590    3477    3588    3591    2667    2443+
+           2439    2663    2668    2445    2664    2669
CHEXA        560       4    2211    2156    2155    2210    2941    2886+
+           2885    2940    2668    2445    2664    2669    2670    2446+
+           2442    2666    3175    3062    3173    3176
CHEXA        561       4    3357    3302    3301    3356    2212    2157+
+           2156    2211    3592    3479    3590    3593    2671    2447+
+           2443    2667    2672    2449    2668    2673
CHEXA        562       4    2212    2157    2156    2211    2942    2887+
+           2886    2941    2672    2449    2668    2673    2674    2450+
+           2446    2670    3177    3064    3175    3178
CHEXA        563       4    3358    3303    3302    3357    2213    2158+
+           2157    2212    3594    3481    3592    3595    2675    2451+
+           2447    2671    2676    2453    2672    2677
CHEXA        564       4    2213    2158    2157    2212    2943    2888+
+           2887    2942    2676    2453    2672    2677    2678    2454+
+           2450    2674    3179    3066    3177    3180
CHEXA        565       4    3359    3304    3303    3358    2214    2159+
+           2158    2213    3596    3483    3594    3597    2679    2455+
+           2451    2675    2680    2457    2676    2681
CHEXA        566       4    2214    2159    2158    2213    2944    2889+
+           2888    2943    2680    2457    2676    2681    2682    2458+
+           2454    2678    3181    3068    3179    3182
CHEXA        567       4    3360    3305    3304    3359    2215    2160+
+           2159    2214    3598    3485    3596    3599    2683    2459+
+           2455    2679    2684    2461    2680    2685
CHEXA        568       4    2215    2160    2159    2214    2945    2890+
+           2889    2944    2684    2461    2680    2685    2686    2462+
+           2458    2682    3183    3070    3181    3184
CHEXA        569       4    3307    3306    3305    3360    2162    2161+
+           2160    2215    3489    3487    3598    3600    2468    2463+
+           2459    2683    2469    2465    2684    2687
CHEXA        570       4    2162    2161    2160    2215    2892    2891+
+           2890    2945    2469    2465    2684    2687    2471    2466+
+           2462    2686    3074    3072    3183    3185
CHEXA        571       4    3336    3335    3334    3333    2191    2190+
+           2189    2188    3551    3548    3545    3601    2587    2582+
+           2577    2573    2589    2584    2579    2688
CHEXA        572       4    2191    2190    2189    2188    2921    2920+
+           2919    2918    2589    2584    2579    2688    2590    2585+
+           2580    2576    3136    3133    3130    3186
CHEXA        573       4    3332    3331    3338    3337    2187    2186+
+           2193    2192    3541    3602    3555    3603    2569    2565+
+           2595    2591    2571    2689    2597    2690
CHEXA        574       4    2187    2186    2193    2192    2917    2916+
+           2923    2922    2571    2689    2597    2690    2572    2568+
+           2598    2594    3126    3187    3140    3188
CHEXA        575       4    3336    3333    3332    3337    2191    2188+
+           2187    2192    3601    3543    3603    3553    2587    2573+
+           2569    2591    2688    2575    2690    2593
CHEXA        576       4    2191    2188    2187    2192    2921    2918+
+           2917    2922    2688    2575    2690    2593    2590    2576+
+           2572    2594    3186    3128    3188    3138
CHEXA        577       4    3329    3328    3341    3340    2184    2183+
+           2196    2195    3535    3604    3561    3605    2557    2553+
+           2607    2603    2559    2691    2609    2692
CHEXA        578       4    2184    2183    2196    2195    2914    2913+
+           2926    2925    2559    2691    2609    2692    2560    2556+
+           2610    2606    3120    3189    3146    3190
CHEXA        579       4    3339    3338    3331    3330    2194    2193+
+           2186    2185    3557    3602    3539    3606    2599    2595+
+           2565    2561    2601    2689    2567    2693
CHEXA        580       4    2194    2193    2186    2185    2924    2923+
+           2916    2915    2601    2689    2567    2693    2602    2598+
+           2568    2564    3142    3187    3124    3191
CHEXA        581       4    3329    3340    3339    3330    2184    2195+
+           2194    2185    3605    3559    3606    3537    2557    2603+
+           2599    2561    2692    2605    2693    2563
CHEXA        582       4    2184    2195    2194    2185    2914    2925+
+           2924    2915    2692    2605    2693    2563    2560    2606+
+           2602    2564    3190    3144    3191    3122
CHEXA        583       4    3346    3345    3324    3323    2201    2200+
+           2179    2178    3571    3607    3525    3608    2627    2623+
+           2537    2533    2629    2694    2539    2695
CHEXA        584       4    2201    2200    2179    2178    2931    2930+
+           2909    2908    2629    2694    2539    2695    2630    2626+
+           2540    2536    3156    3192    3110    3193
CHEXA        585       4    3322    3321    3348    3347    2177    2176+
+           2203    2202    3521    3609    3575    3610    2529    2525+
+           2635    2631    2531    2696    2637    2697
CHEXA        586       4    2177    2176    2203    2202    2907    2906+
+           2933    2932    2531    2696    2637    2697    2532    2528+
+           2638    2634    3106    3194    3160    3195
CHEXA        587       4    3346    3323    3322    3347    2201    2178+
+           2177    2202    3608    3523    3610    3573    2627    2533+
+           2529    2631    2695    2535    2697    2633
CHEXA        588       4    2201    2178    2177    2202    2931    2908+
+           2907    2932    2695    2535    2697    2633    2630    2536+
+           2532    2634    3193    3108    3195    3158
CHEXA        589       4    3342    3341    3328    3327    2197    2196+
+           2183    2182    3563    3604    3533    3611    2611    2607+
+           2553    2549    2613    2691    2555    2698
CHEXA        590       4    2197    2196    2183    2182    2927    2926+
+           2913    2912    2613    2691    2555    2698    2614    2610+
+           2556    2552    3148    3189    3118    3196
CHEXA        591       4    3326    3343    3342    3327    2181    2198+
+           2197    2182    3612    3565    3611    3531    2545    2615+
+           2611    2549    2699    2617    2698    2551
CHEXA        592       4    2181    2198    2197    2182    2911    2928+
+           2927    2912    2699    2617    2698    2551    2548    2618+
+           2614    2552    3197    3150    3196    3116
CHEXA        593       4    3325    3324    3345    3344    2180    2179+
+           2200    2199    3527    3607    3569    3613    2541    2537+
+           2623    2619    2543    2694    2625    2700
CHEXA        594       4    2180    2179    2200    2199    2910    2909+
+           2930    2929    2543    2694    2625    2700    2544    2540+
+           2626    2622    3112    3192    3154    3198
CHEXA        595       4    3343    3326    3325    3344    2198    2181+
+           2180    2199    3612    3529    3613    3567    2615    2545+
+           2541    2619    2699    2547    2700    2621
CHEXA        596       4    2198    2181    2180    2199    2928    2911+
+           2910    2929    2699    2547    2700    2621    2618    2548+
+           2544    2622    3197    3114    3198    3152
CHEXA        597       4    3309    3308    3307    3360    2164    2163+
+           2162    2215    3495    3492    3600    3614    2477    2472+
+           2468    2683    2479    2474    2687    2701
CHEXA        598       4    2164    2163    2162    2215    2894    2893+
+           2892    2945    2479    2474    2687    2701    2480    2475+
+           2471    2686    3080    3077    3185    3199
CHEXA        599       4    3359    3358    3311    3310    2214    2213+
+           2166    2165    3597    3615    3499    3616    2679    2675+
+           2485    2481    2681    2702    2487    2703
CHEXA        600       4    2214    2213    2166    2165    2944    2943+
+           2896    2895    2681    2702    2487    2703    2682    2678+
+           2488    2484    3182    3200    3084    3201
CHEXA        601       4    3309    3360    3359    3310    2164    2215+
+           2214    2165    3614    3599    3616    3497    2477    2683+
+           2679    2481    2701    2685    2703    2483
CHEXA        602       4    2164    2215    2214    2165    2894    2945+
+           2944    2895    2701    2685    2703    2483    2480    2686+
+           2682    2484    3199    3184    3201    3082
CHEXA        603       4    3356    3355    3314    3313    2211    2210+
+           2169    2168    3591    3617    3505    3618    2667    2663+
+           2497    2493    2669    2704    2499    2705
CHEXA        604       4    2211    2210    2169    2168    2941    2940+
+           2899    2898    2669    2704    2499    2705    2670    2666+
+           2500    2496    3176    3202    3090    3203
CHEXA        605       4    3312    3311    3358    3357    2167    2166+
+           2213    2212    3501    3615    3595    3619    2489    2485+
+           2675    2671    2491    2702    2677    2706
CHEXA        606       4    2167    2166    2213    2212    2897    2896+
+           2943    2942    2491    2702    2677    2706    2492    2488+
+           2678    2674    3086    3200    3180    3204
CHEXA        607       4    3356    3313    3312    3357    2211    2168+
+           2167    2212    3618    3503    3619    3593    2667    2493+
+           2489    2671    2705    2495    2706    2673
CHEXA        608       4    2211    2168    2167    2212    2941    2898+
+           2897    2942    2705    2495    2706    2673    2670    2496+
+           2492    2674    3203    3088    3204    3178
CHEXA        609       4    3353    3352    3317    3316    2208    2207+
+           2172    2171    3585    3620    3511    3621    2655    2651+
+           2509    2505    2657    2707    2511    2708
CHEXA        610       4    2208    2207    2172    2171    2938    2937+
+           2902    2901    2657    2707    2511    2708    2658    2654+
+           2512    2508    3170    3205    3096    3206
CHEXA        611       4    3315    3314    3355    3354    2170    2169+
+           2210    2209    3507    3617    3589    3622    2501    2497+
+           2663    2659    2503    2704    2665    2709
CHEXA        612       4    2170    2169    2210    2209    2900    2899+
+           2940    2939    2503    2704    2665    2709    2504    2500+
+           2666    2662    3092    3202    3174    3207
CHEXA        613       4    3353    3316    3315    3354    2208    2171+
+           2170    2209    3621    3509    3622    3587    2655    2505+
+           2501    2659    2708    2507    2709    2661
CHEXA        614       4    2208    2171    2170    2209    2938    2901+
+           2900    2939    2708    2507    2709    2661    2658    2508+
+           2504    2662    3206    3094    3207    3172
CHEXA        615       4    3349    3348    3321    3320    2204    2203+
+           2176    2175    3577    3609    3519    3623    2639    2635+
+           2525    2521    2641    2696    2527    2710
CHEXA        616       4    2204    2203    2176    2175    2934    2933+
+           2906    2905    2641    2696    2527    2710    2642    2638+
+           2528    2524    3162    3194    3104    3208
CHEXA        617       4    3319    3350    3349    3320    2174    2205+
+           2204    2175    3624    3579    3623    3517    2517    2643+
+           2639    2521    2711    2645    2710    2523
CHEXA        618       4    2174    2205    2204    2175    2904    2935+
+           2934    2905    2711    2645    2710    2523    2520    2646+
+           2642    2524    3209    3164    3208    3102
CHEXA        619       4    3318    3317    3352    3351    2173    2172+
+           2207    2206    3513    3620    3583    3625    2513    2509+
+           2651    2647    2515    2707    2653    2712
CHEXA        620       4    2173    2172    2207    2206    2903    2902+
+           2937    2936    2515    2707    2653    2712    2516    2512+
+           2654    2650    3098    3205    3168    3210
CHEXA        621       4    3350    3319    3318    3351    2205    2174+
+           2173    2206    3624    3515    3625    3581    2643    2517+
+           2513    2647    2711    2519    2712    2649
CHEXA        622       4    2205    2174    2173    2206    2935    2904+
+           2903    2936    2711    2519    2712    2649    2646    2520+
+           2516    2650    3209    3100    3210    3166
$*  NX mesh: [Bridge_f]:Slab_Base_Connection_Mesh
CBUSH        623       6    4031    40411.000000  0.0000  0.0000
CBUSH        624       6    4032    40421.000000  0.0000  0.0000
CBUSH        625       6    4033    40431.000000  0.0000  0.0000
CBUSH        626       6    4034    40441.000000  0.0000  0.0000
CBUSH        627       6    4035    40451.000000  0.0000  0.0000
CBUSH        628       6    4036    40461.000000  0.0000  0.0000
CBUSH        629       6    4037    40471.000000  0.0000  0.0000
CBUSH        630       6    4038    40481.000000  0.0000  0.0000
CBUSH        631       6    4039    40491.000000  0.0000  0.0000
CBUSH        632       6    4040    40501.000000  0.0000  0.0000
$*  NX mesh: [RailSlab_f]:Rail_Mesh
CBEAM       4391      18    6659    6691  0.00001.000000  0.0000
CBEAM       4392      18    6691    6637  0.00001.000000  0.0000
CBEAM       4393      18    6637    6688  0.00001.000000  0.0000
CBEAM       4394      18    6688    6665  0.00001.000000  0.0000
CBEAM       4395      18    6665    6666  0.00001.000000  0.0000
CBEAM       4396      18    6666    6660  0.00001.000000  0.0000
CBEAM       4397      18    6660    6639  0.00001.000000  0.0000
CBEAM       4398      18    6639    6640  0.00001.000000  0.0000
CBEAM       4399      18    6640    6668  0.00001.000000  0.0000
CBEAM       4400      18    6668    6647  0.00001.000000  0.0000
CBEAM       4401      18    6647    6679  0.00001.000000  0.0000
CBEAM       4402      18    6679    6642  0.00001.000000  0.0000
CBEAM       4403      18    6642    6646  0.00001.000000  0.0000
CBEAM       4404      18    6646    6681  0.00001.000000  0.0000
CBEAM       4405      18    6681    6635  0.00001.000000  0.0000
CBEAM       4406      18    6635    6643  0.00001.000000  0.0000
CBEAM       4407      18    6643    6692  0.00001.000000  0.0000
CBEAM       4408      18    6692    6632  0.00001.000000  0.0000
CBEAM       4409      18    6632    6683  0.00001.000000  0.0000
CBEAM       4410      18    6683    6672  0.00001.000000  0.0000
CBEAM       4411      18    6672    6653  0.00001.000000  0.0000
CBEAM       4412      18    6653    6662  0.00001.000000  0.0000
CBEAM       4413      18    6662    6684  0.00001.000000  0.0000
CBEAM       4414      18    6684    6657  0.00001.000000  0.0000
CBEAM       4415      18    6657    6649  0.00001.000000  0.0000
CBEAM       4416      18    6649    6674  0.00001.000000  0.0000
CBEAM       4417      18    6674    6687  0.00001.000000  0.0000
CBEAM       4418      18    6687    6685  0.00001.000000  0.0000
CBEAM       4419      18    6685    6690  0.00001.000000  0.0000
CBEAM       4420      18    6690    6677  0.00001.000000  0.0000
CBEAM       4421      18    6677    6676  0.00001.000000  0.0000
CBEAM       4422      18    6676    6655  0.00001.000000  0.0000
CBEAM       4423      18    6655    6644  0.00001.000000  0.0000
CBEAM       4424      18    6644    6680  0.00001.000000  0.0000
CBEAM       4425      18    6680    6648  0.00001.000000  0.0000
CBEAM       4426      18    6648    6634  0.00001.000000  0.0000
CBEAM       4427      18    6634    6682  0.00001.000000  0.0000
CBEAM       4428      18    6682    6663  0.00001.000000  0.0000
CBEAM       4429      18    6663    6650  0.00001.000000  0.0000
CBEAM       4430      18    6650    6641  0.00001.000000  0.0000
CBEAM       4431      18    6641    6636  0.00001.000000  0.0000
CBEAM       4432      18    6636    6675  0.00001.000000  0.0000
CBEAM       4433      18    6675    6689  0.00001.000000  0.0000
CBEAM       4434      18    6689    6664  0.00001.000000  0.0000
CBEAM       4435      18    6664    6633  0.00001.000000  0.0000
CBEAM       4436      18    6633    6658  0.00001.000000  0.0000
CBEAM       4437      18    6658    6654  0.00001.000000  0.0000
CBEAM       4438      18    6654    6652  0.00001.000000  0.0000
CBEAM       4439      18    6652    6678  0.00001.000000  0.0000
CBEAM       4440      18    6678    6667  0.00001.000000  0.0000
CBEAM       4441      18    6667    6661  0.00001.000000  0.0000
CBEAM       4442      18    6661    6673  0.00001.000000  0.0000
CBEAM       4443      18    6673    6656  0.00001.000000  0.0000
CBEAM       4444      18    6656    6645  0.00001.000000  0.0000
CBEAM       4445      18    6645    6671  0.00001.000000  0.0000
CBEAM       4446      18    6671    6669  0.00001.000000  0.0000
CBEAM       4447      18    6669    6686  0.00001.000000  0.0000
CBEAM       4448      18    6686    6651  0.00001.000000  0.0000
CBEAM       4449      18    6651    6638  0.00001.000000  0.0000
CBEAM       4450      18    6638    6670  0.00001.000000  0.0000
$*  NX mesh: [RailSlab_f]:Slab_Mesh
CHEXA       4091      21    6257    6518    6451    5166    6236    6516+
+           6330    4387    6262    6452    5402    5403    5161    6391+
+           5937    4092    6240    6331    4623    4624
CHEXA       4092      21    5167    6256    6257    5166    4388    6237+
+           6236    4387    5404    6261    5403    5405    4093    5160+
+           5161    4092    4625    6241    4624    4626
CHEXA       4093      21    5168    6255    6256    5167    4389    6238+
+           6237    4388    5406    6260    5404    5407    4094    5159+
+           5160    4093    4627    6242    4625    4628
CHEXA       4094      21    5169    6254    6255    5168    4390    6239+
+           6238    4389    5408    6259    5406    5409    4095    5158+
+           5159    4094    4629    6243    4627    4630
CHEXA       4095      21    6175    6514    6254    5169    6054    6513+
+           6239    4390    6176    6258    5408    5410    4328    6115+
+           5158    4095    6055    6244    4629    4631
CHEXA       4096      21    5170    6174    6175    5169    4391    6053+
+           6054    4390    5411    6177    5410    5412    4096    4329+
+           4328    4095    4632    6056    4631    4633
CHEXA       4097      21    5171    6173    6174    5170    4392    6052+
+           6053    4391    5413    6178    5411    5414    4097    4330+
+           4329    4096    4634    6057    4632    4635
CHEXA       4098      21    5172    6172    6173    5171    4393    6051+
+           6052    4392    5415    6179    5413    5416    4098    4331+
+           4330    4097    4636    6058    4634    4637
CHEXA       4099      21    5173    6171    6172    5172    4394    6050+
+           6051    4393    5417    6180    5415    5418    4099    4332+
+           4331    4098    4638    6059    4636    4639
CHEXA       4100      21    5174    6170    6171    5173    4395    6049+
+           6050    4394    5419    6181    5417    5420    4100    4333+
+           4332    4099    4640    6060    4638    4641
CHEXA       4101      21    5175    6169    6170    5174    4396    6048+
+           6049    4395    5421    6182    5419    5422    4101    4334+
+           4333    4100    4642    6061    4640    4643
CHEXA       4102      21    5176    6168    6169    5175    4397    6047+
+           6048    4396    5423    6183    5421    5424    4102    4335+
+           4334    4101    4644    6062    4642    4645
CHEXA       4103      21    5177    6167    6168    5176    4398    6046+
+           6047    4397    5425    6184    5423    5426    4103    4336+
+           4335    4102    4646    6063    4644    4647
CHEXA       4104      21    5178    6166    6167    5177    4399    6045+
+           6046    4398    5427    6185    5425    5428    4104    4337+
+           4336    4103    4648    6064    4646    4649
CHEXA       4105      21    5179    6165    6166    5178    4400    6044+
+           6045    4399    5429    6186    5427    5430    4105    4338+
+           4337    4104    4650    6065    4648    4651
CHEXA       4106      21    5180    6164    6165    5179    4401    6043+
+           6044    4400    5431    6187    5429    5432    4106    4339+
+           4338    4105    4652    6066    4650    4653
CHEXA       4107      21    5181    6163    6164    5180    4402    6042+
+           6043    4401    5433    6188    5431    5434    4107    4340+
+           4339    4106    4654    6067    4652    4655
CHEXA       4108      21    5182    6162    6163    5181    4403    6041+
+           6042    4402    5435    6189    5433    5436    4108    4341+
+           4340    4107    4656    6068    4654    4657
CHEXA       4109      21    5183    6161    6162    5182    4404    6040+
+           6041    4403    5437    6190    5435    5438    4109    4342+
+           4341    4108    4658    6069    4656    4659
CHEXA       4110      21    5184    6160    6161    5183    4405    6039+
+           6040    4404    5439    6191    5437    5440    4110    4343+
+           4342    4109    4660    6070    4658    4661
CHEXA       4111      21    5185    6159    6160    5184    4406    6038+
+           6039    4405    5441    6192    5439    5442    4111    4344+
+           4343    4110    4662    6071    4660    4663
CHEXA       4112      21    5186    6158    6159    5185    4407    6037+
+           6038    4406    5443    6193    5441    5444    4112    4345+
+           4344    4111    4664    6072    4662    4665
CHEXA       4113      21    5187    6157    6158    5186    4408    6036+
+           6037    4407    5445    6194    5443    5446    4113    4346+
+           4345    4112    4666    6073    4664    4667
CHEXA       4114      21    5188    6156    6157    5187    4409    6035+
+           6036    4408    5447    6195    5445    5448    4114    4347+
+           4346    4113    4668    6074    4666    4669
CHEXA       4115      21    5189    6155    6156    5188    4410    6034+
+           6035    4409    5449    6196    5447    5450    4115    4348+
+           4347    4114    4670    6075    4668    4671
CHEXA       4116      21    5190    6154    6155    5189    4411    6033+
+           6034    4410    5451    6197    5449    5452    4116    4349+
+           4348    4115    4672    6076    4670    4673
CHEXA       4117      21    5191    6153    6154    5190    4412    6032+
+           6033    4411    5453    6198    5451    5454    4117    4350+
+           4349    4116    4674    6077    4672    4675
CHEXA       4118      21    5192    6152    6153    5191    4413    6031+
+           6032    4412    5455    6199    5453    5456    4118    4351+
+           4350    4117    4676    6078    4674    4677
CHEXA       4119      21    5193    6151    6152    5192    4414    6030+
+           6031    4413    5457    6200    5455    5458    4119    4352+
+           4351    4118    4678    6079    4676    4679
CHEXA       4120      21    5194    6150    6151    5193    4415    6029+
+           6030    4414    5459    6201    5457    5460    4120    4353+
+           4352    4119    4680    6080    4678    4681
CHEXA       4121      21    5195    6149    6150    5194    4416    6028+
+           6029    4415    5461    6202    5459    5462    4121    4354+
+           4353    4120    4682    6081    4680    4683
CHEXA       4122      21    5196    6148    6149    5195    4417    6027+
+           6028    4416    5463    6203    5461    5464    4122    4355+
+           4354    4121    4684    6082    4682    4685
CHEXA       4123      21    5197    6147    6148    5196    4418    6026+
+           6027    4417    5465    6204    5463    5466    4123    4356+
+           4355    4122    4686    6083    4684    4687
CHEXA       4124      21    5198    6146    6147    5197    4419    6025+
+           6026    4418    5467    6205    5465    5468    4124    4357+
+           4356    4123    4688    6084    4686    4689
CHEXA       4125      21    5199    6145    6146    5198    4420    6024+
+           6025    4419    5469    6206    5467    5470    4125    4358+
+           4357    4124    4690    6085    4688    4691
CHEXA       4126      21    5200    6144    6145    5199    4421    6023+
+           6024    4420    5471    6207    5469    5472    4126    4359+
+           4358    4125    4692    6086    4690    4693
CHEXA       4127      21    5201    6143    6144    5200    4422    6022+
+           6023    4421    5473    6208    5471    5474    4127    4360+
+           4359    4126    4694    6087    4692    4695
CHEXA       4128      21    5202    6142    6143    5201    4423    6021+
+           6022    4422    5475    6209    5473    5476    4128    4361+
+           4360    4127    4696    6088    4694    4697
CHEXA       4129      21    5203    6141    6142    5202    4424    6020+
+           6021    4423    5477    6210    5475    5478    4129    4362+
+           4361    4128    4698    6089    4696    4699
CHEXA       4130      21    5204    6140    6141    5203    4425    6019+
+           6020    4424    5479    6211    5477    5480    4130    4363+
+           4362    4129    4700    6090    4698    4701
CHEXA       4131      21    5205    6139    6140    5204    4426    6018+
+           6019    4425    5481    6212    5479    5482    4131    4364+
+           4363    4130    4702    6091    4700    4703
CHEXA       4132      21    5206    6138    6139    5205    4427    6017+
+           6018    4426    5483    6213    5481    5484    4132    4365+
+           4364    4131    4704    6092    4702    4705
CHEXA       4133      21    5207    6137    6138    5206    4428    6016+
+           6017    4427    5485    6214    5483    5486    4133    4366+
+           4365    4132    4706    6093    4704    4707
CHEXA       4134      21    5208    6136    6137    5207    4429    6015+
+           6016    4428    5487    6215    5485    5488    4134    4367+
+           4366    4133    4708    6094    4706    4709
CHEXA       4135      21    5209    6135    6136    5208    4430    6014+
+           6015    4429    5489    6216    5487    5490    4135    4368+
+           4367    4134    4710    6095    4708    4711
CHEXA       4136      21    5210    6134    6135    5209    4431    6013+
+           6014    4430    5491    6217    5489    5492    4136    4369+
+           4368    4135    4712    6096    4710    4713
CHEXA       4137      21    5211    6133    6134    5210    4432    6012+
+           6013    4431    5493    6218    5491    5494    4137    4370+
+           4369    4136    4714    6097    4712    4715
CHEXA       4138      21    5212    6132    6133    5211    4433    6011+
+           6012    4432    5495    6219    5493    5496    4138    4371+
+           4370    4137    4716    6098    4714    4717
CHEXA       4139      21    5213    6131    6132    5212    4434    6010+
+           6011    4433    5497    6220    5495    5498    4139    4372+
+           4371    4138    4718    6099    4716    4719
CHEXA       4140      21    5214    6130    6131    5213    4435    6009+
+           6010    4434    5499    6221    5497    5500    4140    4373+
+           4372    4139    4720    6100    4718    4721
CHEXA       4141      21    5215    6129    6130    5214    4436    6008+
+           6009    4435    5501    6222    5499    5502    4141    4374+
+           4373    4140    4722    6101    4720    4723
CHEXA       4142      21    5216    6128    6129    5215    4437    6007+
+           6008    4436    5503    6223    5501    5504    4142    4375+
+           4374    4141    4724    6102    4722    4725
CHEXA       4143      21    5217    6127    6128    5216    4438    6006+
+           6007    4437    5505    6224    5503    5506    4143    4376+
+           4375    4142    4726    6103    4724    4727
CHEXA       4144      21    5218    6126    6127    5217    4439    6005+
+           6006    4438    5507    6225    5505    5508    4144    4377+
+           4376    4143    4728    6104    4726    4729
CHEXA       4145      21    5219    6125    6126    5218    4440    6004+
+           6005    4439    5509    6226    5507    5510    4145    4378+
+           4377    4144    4730    6105    4728    4731
CHEXA       4146      21    5220    6124    6125    5219    4441    6003+
+           6004    4440    5511    6227    5509    5512    4146    4379+
+           4378    4145    4732    6106    4730    4733
CHEXA       4147      21    5221    6123    6124    5220    4442    6002+
+           6003    4441    5513    6228    5511    5514    4147    4380+
+           4379    4146    4734    6107    4732    4735
CHEXA       4148      21    5222    6122    6123    5221    4443    6001+
+           6002    4442    5515    6229    5513    5516    4148    4381+
+           4380    4147    4736    6108    4734    4737
CHEXA       4149      21    5223    6121    6122    5222    4444    6000+
+           6001    4443    5517    6230    5515    5518    4149    4382+
+           4381    4148    4738    6109    4736    4739
CHEXA       4150      21    5224    6120    6121    5223    4445    5999+
+           6000    4444    5519    6231    5517    5520    4150    4383+
+           4382    4149    4740    6110    4738    4741
CHEXA       4151      21    5225    6119    6120    5224    4446    5998+
+           5999    4445    5521    6232    5519    5522    4151    4384+
+           4383    4150    4742    6111    4740    4743
CHEXA       4152      21    5226    6118    6119    5225    4447    5997+
+           5998    4446    5523    6233    5521    5524    4152    4385+
+           4384    4151    4744    6112    4742    4745
CHEXA       4153      21    5227    6117    6118    5226    4448    5996+
+           5997    4447    5525    6234    5523    5526    4153    4386+
+           4385    4152    4746    6113    4744    4747
CHEXA       4154      21    6263    6515    6117    5227    6248    6512+
+           5996    4448    6267    6235    5525    5527    5162    6116+
+           4386    4153    6249    6114    4746    4748
CHEXA       4155      21    5228    6264    6263    5227    4449    6247+
+           6248    4448    5528    6268    5527    5529    4154    5163+
+           5162    4153    4749    6250    4748    4750
CHEXA       4156      21    5229    6265    6264    5228    4450    6246+
+           6247    4449    5530    6269    5528    5531    4155    5164+
+           5163    4154    4751    6251    4749    4752
CHEXA       4157      21    5230    6266    6265    5229    4451    6245+
+           6246    4450    5532    6270    5530    5533    4156    5165+
+           5164    4155    4753    6252    4751    4754
CHEXA       4158      21    6393    6519    6266    5230    6272    6517+
+           6245    4451    6453    6271    5532    5534    5995    6392+
+           5165    4156    6332    6253    4753    4755
CHEXA       4159      21    5231    6394    6393    5230    4452    6273+
+           6272    4451    5535    6454    5534    5536    4157    5994+
+           5995    4156    4756    6333    4755    4757
CHEXA       4160      21    5232    6395    6394    5231    4453    6274+
+           6273    4452    5537    6455    5535    5538    4158    5993+
+           5994    4157    4758    6334    4756    4759
CHEXA       4161      21    5233    6396    6395    5232    4454    6275+
+           6274    4453    5539    6456    5537    5540    4159    5992+
+           5993    4158    4760    6335    4758    4761
CHEXA       4162      21    5234    6397    6396    5233    4455    6276+
+           6275    4454    5541    6457    5539    5542    4160    5991+
+           5992    4159    4762    6336    4760    4763
CHEXA       4163      21    5235    6398    6397    5234    4456    6277+
+           6276    4455    5543    6458    5541    5544    4161    5990+
+           5991    4160    4764    6337    4762    4765
CHEXA       4164      21    5236    6399    6398    5235    4457    6278+
+           6277    4456    5545    6459    5543    5546    4162    5989+
+           5990    4161    4766    6338    4764    4767
CHEXA       4165      21    5237    6400    6399    5236    4458    6279+
+           6278    4457    5547    6460    5545    5548    4163    5988+
+           5989    4162    4768    6339    4766    4769
CHEXA       4166      21    5238    6401    6400    5237    4459    6280+
+           6279    4458    5549    6461    5547    5550    4164    5987+
+           5988    4163    4770    6340    4768    4771
CHEXA       4167      21    5239    6402    6401    5238    4460    6281+
+           6280    4459    5551    6462    5549    5552    4165    5986+
+           5987    4164    4772    6341    4770    4773
CHEXA       4168      21    5240    6403    6402    5239    4461    6282+
+           6281    4460    5553    6463    5551    5554    4166    5985+
+           5986    4165    4774    6342    4772    4775
CHEXA       4169      21    5241    6404    6403    5240    4462    6283+
+           6282    4461    5555    6464    5553    5556    4167    5984+
+           5985    4166    4776    6343    4774    4777
CHEXA       4170      21    5242    6405    6404    5241    4463    6284+
+           6283    4462    5557    6465    5555    5558    4168    5983+
+           5984    4167    4778    6344    4776    4779
CHEXA       4171      21    5243    6406    6405    5242    4464    6285+
+           6284    4463    5559    6466    5557    5560    4169    5982+
+           5983    4168    4780    6345    4778    4781
CHEXA       4172      21    5244    6407    6406    5243    4465    6286+
+           6285    4464    5561    6467    5559    5562    4170    5981+
+           5982    4169    4782    6346    4780    4783
CHEXA       4173      21    5245    6408    6407    5244    4466    6287+
+           6286    4465    5563    6468    5561    5564    4171    5980+
+           5981    4170    4784    6347    4782    4785
CHEXA       4174      21    5246    6409    6408    5245    4467    6288+
+           6287    4466    5565    6469    5563    5566    4172    5979+
+           5980    4171    4786    6348    4784    4787
CHEXA       4175      21    5247    6410    6409    5246    4468    6289+
+           6288    4467    5567    6470    5565    5568    4173    5978+
+           5979    4172    4788    6349    4786    4789
CHEXA       4176      21    5248    6411    6410    5247    4469    6290+
+           6289    4468    5569    6471    5567    5570    4174    5977+
+           5978    4173    4790    6350    4788    4791
CHEXA       4177      21    5249    6412    6411    5248    4470    6291+
+           6290    4469    5571    6472    5569    5572    4175    5976+
+           5977    4174    4792    6351    4790    4793
CHEXA       4178      21    5250    6413    6412    5249    4471    6292+
+           6291    4470    5573    6473    5571    5574    4176    5975+
+           5976    4175    4794    6352    4792    4795
CHEXA       4179      21    5251    6414    6413    5250    4472    6293+
+           6292    4471    5575    6474    5573    5576    4177    5974+
+           5975    4176    4796    6353    4794    4797
CHEXA       4180      21    5252    6415    6414    5251    4473    6294+
+           6293    4472    5577    6475    5575    5578    4178    5973+
+           5974    4177    4798    6354    4796    4799
CHEXA       4181      21    5253    6416    6415    5252    4474    6295+
+           6294    4473    5579    6476    5577    5580    4179    5972+
+           5973    4178    4800    6355    4798    4801
CHEXA       4182      21    5254    6417    6416    5253    4475    6296+
+           6295    4474    5581    6477    5579    5582    4180    5971+
+           5972    4179    4802    6356    4800    4803
CHEXA       4183      21    5255    6418    6417    5254    4476    6297+
+           6296    4475    5583    6478    5581    5584    4181    5970+
+           5971    4180    4804    6357    4802    4805
CHEXA       4184      21    5256    6419    6418    5255    4477    6298+
+           6297    4476    5585    6479    5583    5586    4182    5969+
+           5970    4181    4806    6358    4804    4807
CHEXA       4185      21    5257    6420    6419    5256    4478    6299+
+           6298    4477    5587    6480    5585    5588    4183    5968+
+           5969    4182    4808    6359    4806    4809
CHEXA       4186      21    5258    6421    6420    5257    4479    6300+
+           6299    4478    5589    6481    5587    5590    4184    5967+
+           5968    4183    4810    6360    4808    4811
CHEXA       4187      21    5259    6422    6421    5258    4480    6301+
+           6300    4479    5591    6482    5589    5592    4185    5966+
+           5967    4184    4812    6361    4810    4813
CHEXA       4188      21    5260    6423    6422    5259    4481    6302+
+           6301    4480    5593    6483    5591    5594    4186    5965+
+           5966    4185    4814    6362    4812    4815
CHEXA       4189      21    5261    6424    6423    5260    4482    6303+
+           6302    4481    5595    6484    5593    5596    4187    5964+
+           5965    4186    4816    6363    4814    4817
CHEXA       4190      21    5262    6425    6424    5261    4483    6304+
+           6303    4482    5597    6485    5595    5598    4188    5963+
+           5964    4187    4818    6364    4816    4819
CHEXA       4191      21    5263    6426    6425    5262    4484    6305+
+           6304    4483    5599    6486    5597    5600    4189    5962+
+           5963    4188    4820    6365    4818    4821
CHEXA       4192      21    5264    6427    6426    5263    4485    6306+
+           6305    4484    5601    6487    5599    5602    4190    5961+
+           5962    4189    4822    6366    4820    4823
CHEXA       4193      21    5265    6428    6427    5264    4486    6307+
+           6306    4485    5603    6488    5601    5604    4191    5960+
+           5961    4190    4824    6367    4822    4825
CHEXA       4194      21    5266    6429    6428    5265    4487    6308+
+           6307    4486    5605    6489    5603    5606    4192    5959+
+           5960    4191    4826    6368    4824    4827
CHEXA       4195      21    5267    6430    6429    5266    4488    6309+
+           6308    4487    5607    6490    5605    5608    4193    5958+
+           5959    4192    4828    6369    4826    4829
CHEXA       4196      21    5268    6431    6430    5267    4489    6310+
+           6309    4488    5609    6491    5607    5610    4194    5957+
+           5958    4193    4830    6370    4828    4831
CHEXA       4197      21    5269    6432    6431    5268    4490    6311+
+           6310    4489    5611    6492    5609    5612    4195    5956+
+           5957    4194    4832    6371    4830    4833
CHEXA       4198      21    5270    6433    6432    5269    4491    6312+
+           6311    4490    5613    6493    5611    5614    4196    5955+
+           5956    4195    4834    6372    4832    4835
CHEXA       4199      21    5271    6434    6433    5270    4492    6313+
+           6312    4491    5615    6494    5613    5616    4197    5954+
+           5955    4196    4836    6373    4834    4837
CHEXA       4200      21    5272    6435    6434    5271    4493    6314+
+           6313    4492    5617    6495    5615    5618    4198    5953+
+           5954    4197    4838    6374    4836    4839
CHEXA       4201      21    5273    6436    6435    5272    4494    6315+
+           6314    4493    5619    6496    5617    5620    4199    5952+
+           5953    4198    4840    6375    4838    4841
CHEXA       4202      21    5274    6437    6436    5273    4495    6316+
+           6315    4494    5621    6497    5619    5622    4200    5951+
+           5952    4199    4842    6376    4840    4843
CHEXA       4203      21    5275    6438    6437    5274    4496    6317+
+           6316    4495    5623    6498    5621    5624    4201    5950+
+           5951    4200    4844    6377    4842    4845
CHEXA       4204      21    5276    6439    6438    5275    4497    6318+
+           6317    4496    5625    6499    5623    5626    4202    5949+
+           5950    4201    4846    6378    4844    4847
CHEXA       4205      21    5277    6440    6439    5276    4498    6319+
+           6318    4497    5627    6500    5625    5628    4203    5948+
+           5949    4202    4848    6379    4846    4849
CHEXA       4206      21    5278    6441    6440    5277    4499    6320+
+           6319    4498    5629    6501    5627    5630    4204    5947+
+           5948    4203    4850    6380    4848    4851
CHEXA       4207      21    5279    6442    6441    5278    4500    6321+
+           6320    4499    5631    6502    5629    5632    4205    5946+
+           5947    4204    4852    6381    4850    4853
CHEXA       4208      21    5280    6443    6442    5279    4501    6322+
+           6321    4500    5633    6503    5631    5634    4206    5945+
+           5946    4205    4854    6382    4852    4855
CHEXA       4209      21    5281    6444    6443    5280    4502    6323+
+           6322    4501    5635    6504    5633    5636    4207    5944+
+           5945    4206    4856    6383    4854    4857
CHEXA       4210      21    5282    6445    6444    5281    4503    6324+
+           6323    4502    5637    6505    5635    5638    4208    5943+
+           5944    4207    4858    6384    4856    4859
CHEXA       4211      21    5283    6446    6445    5282    4504    6325+
+           6324    4503    5639    6506    5637    5640    4209    5942+
+           5943    4208    4860    6385    4858    4861
CHEXA       4212      21    5284    6447    6446    5283    4505    6326+
+           6325    4504    5641    6507    5639    5642    4210    5941+
+           5942    4209    4862    6386    4860    4863
CHEXA       4213      21    5285    6448    6447    5284    4506    6327+
+           6326    4505    5643    6508    5641    5644    4211    5940+
+           5941    4210    4864    6387    4862    4865
CHEXA       4214      21    5286    6449    6448    5285    4507    6328+
+           6327    4506    5645    6509    5643    5646    4212    5939+
+           5940    4211    4866    6388    4864    4867
CHEXA       4215      21    5287    6450    6449    5286    4508    6329+
+           6328    4507    5647    6510    5645    5648    4213    5938+
+           5939    4212    4868    6389    4866    4869
CHEXA       4216      21    5166    6451    6450    5287    4387    6330+
+           6329    4508    5402    6511    5647    5649    4092    5937+
+           5938    4213    4623    6390    4868    4870
CHEXA       4217      21    5167    5166    5287    5288    4388    4387+
+           4508    4509    5405    5649    5650    5651    4093    4092+
+           4213    4214    4626    4870    4871    4872
CHEXA       4218      21    5289    5168    5167    5288    4510    4389+
+           4388    4509    5652    5407    5651    5653    4215    4094+
+           4093    4214    4873    4628    4872    4874
CHEXA       4219      21    5170    5169    5168    5289    4391    4390+
+           4389    4510    5412    5409    5652    5654    4096    4095+
+           4094    4215    4633    4630    4873    4875
CHEXA       4220      21    5290    5171    5170    5289    4511    4392+
+           4391    4510    5655    5414    5654    5656    4216    4097+
+           4096    4215    4876    4635    4875    4877
CHEXA       4221      21    5291    5172    5171    5290    4512    4393+
+           4392    4511    5657    5416    5655    5658    4217    4098+
+           4097    4216    4878    4637    4876    4879
CHEXA       4222      21    5292    5173    5172    5291    4513    4394+
+           4393    4512    5659    5418    5657    5660    4218    4099+
+           4098    4217    4880    4639    4878    4881
CHEXA       4223      21    5293    5174    5173    5292    4514    4395+
+           4394    4513    5661    5420    5659    5662    4219    4100+
+           4099    4218    4882    4641    4880    4883
CHEXA       4224      21    5294    5175    5174    5293    4515    4396+
+           4395    4514    5663    5422    5661    5664    4220    4101+
+           4100    4219    4884    4643    4882    4885
CHEXA       4225      21    5295    5176    5175    5294    4516    4397+
+           4396    4515    5665    5424    5663    5666    4221    4102+
+           4101    4220    4886    4645    4884    4887
CHEXA       4226      21    5296    5177    5176    5295    4517    4398+
+           4397    4516    5667    5426    5665    5668    4222    4103+
+           4102    4221    4888    4647    4886    4889
CHEXA       4227      21    5297    5178    5177    5296    4518    4399+
+           4398    4517    5669    5428    5667    5670    4223    4104+
+           4103    4222    4890    4649    4888    4891
CHEXA       4228      21    5298    5179    5178    5297    4519    4400+
+           4399    4518    5671    5430    5669    5672    4224    4105+
+           4104    4223    4892    4651    4890    4893
CHEXA       4229      21    5299    5180    5179    5298    4520    4401+
+           4400    4519    5673    5432    5671    5674    4225    4106+
+           4105    4224    4894    4653    4892    4895
CHEXA       4230      21    5300    5181    5180    5299    4521    4402+
+           4401    4520    5675    5434    5673    5676    4226    4107+
+           4106    4225    4896    4655    4894    4897
CHEXA       4231      21    5301    5182    5181    5300    4522    4403+
+           4402    4521    5677    5436    5675    5678    4227    4108+
+           4107    4226    4898    4657    4896    4899
CHEXA       4232      21    5302    5183    5182    5301    4523    4404+
+           4403    4522    5679    5438    5677    5680    4228    4109+
+           4108    4227    4900    4659    4898    4901
CHEXA       4233      21    5303    5184    5183    5302    4524    4405+
+           4404    4523    5681    5440    5679    5682    4229    4110+
+           4109    4228    4902    4661    4900    4903
CHEXA       4234      21    5304    5185    5184    5303    4525    4406+
+           4405    4524    5683    5442    5681    5684    4230    4111+
+           4110    4229    4904    4663    4902    4905
CHEXA       4235      21    5305    5186    5185    5304    4526    4407+
+           4406    4525    5685    5444    5683    5686    4231    4112+
+           4111    4230    4906    4665    4904    4907
CHEXA       4236      21    5306    5187    5186    5305    4527    4408+
+           4407    4526    5687    5446    5685    5688    4232    4113+
+           4112    4231    4908    4667    4906    4909
CHEXA       4237      21    5307    5188    5187    5306    4528    4409+
+           4408    4527    5689    5448    5687    5690    4233    4114+
+           4113    4232    4910    4669    4908    4911
CHEXA       4238      21    5308    5189    5188    5307    4529    4410+
+           4409    4528    5691    5450    5689    5692    4234    4115+
+           4114    4233    4912    4671    4910    4913
CHEXA       4239      21    5309    5190    5189    5308    4530    4411+
+           4410    4529    5693    5452    5691    5694    4235    4116+
+           4115    4234    4914    4673    4912    4915
CHEXA       4240      21    5310    5191    5190    5309    4531    4412+
+           4411    4530    5695    5454    5693    5696    4236    4117+
+           4116    4235    4916    4675    4914    4917
CHEXA       4241      21    5311    5192    5191    5310    4532    4413+
+           4412    4531    5697    5456    5695    5698    4237    4118+
+           4117    4236    4918    4677    4916    4919
CHEXA       4242      21    5312    5193    5192    5311    4533    4414+
+           4413    4532    5699    5458    5697    5700    4238    4119+
+           4118    4237    4920    4679    4918    4921
CHEXA       4243      21    5313    5194    5193    5312    4534    4415+
+           4414    4533    5701    5460    5699    5702    4239    4120+
+           4119    4238    4922    4681    4920    4923
CHEXA       4244      21    5314    5195    5194    5313    4535    4416+
+           4415    4534    5703    5462    5701    5704    4240    4121+
+           4120    4239    4924    4683    4922    4925
CHEXA       4245      21    5315    5196    5195    5314    4536    4417+
+           4416    4535    5705    5464    5703    5706    4241    4122+
+           4121    4240    4926    4685    4924    4927
CHEXA       4246      21    5316    5197    5196    5315    4537    4418+
+           4417    4536    5707    5466    5705    5708    4242    4123+
+           4122    4241    4928    4687    4926    4929
CHEXA       4247      21    5317    5198    5197    5316    4538    4419+
+           4418    4537    5709    5468    5707    5710    4243    4124+
+           4123    4242    4930    4689    4928    4931
CHEXA       4248      21    5318    5199    5198    5317    4539    4420+
+           4419    4538    5711    5470    5709    5712    4244    4125+
+           4124    4243    4932    4691    4930    4933
CHEXA       4249      21    5319    5200    5199    5318    4540    4421+
+           4420    4539    5713    5472    5711    5714    4245    4126+
+           4125    4244    4934    4693    4932    4935
CHEXA       4250      21    5320    5201    5200    5319    4541    4422+
+           4421    4540    5715    5474    5713    5716    4246    4127+
+           4126    4245    4936    4695    4934    4937
CHEXA       4251      21    5321    5202    5201    5320    4542    4423+
+           4422    4541    5717    5476    5715    5718    4247    4128+
+           4127    4246    4938    4697    4936    4939
CHEXA       4252      21    5322    5203    5202    5321    4543    4424+
+           4423    4542    5719    5478    5717    5720    4248    4129+
+           4128    4247    4940    4699    4938    4941
CHEXA       4253      21    5323    5204    5203    5322    4544    4425+
+           4424    4543    5721    5480    5719    5722    4249    4130+
+           4129    4248    4942    4701    4940    4943
CHEXA       4254      21    5324    5205    5204    5323    4545    4426+
+           4425    4544    5723    5482    5721    5724    4250    4131+
+           4130    4249    4944    4703    4942    4945
CHEXA       4255      21    5325    5206    5205    5324    4546    4427+
+           4426    4545    5725    5484    5723    5726    4251    4132+
+           4131    4250    4946    4705    4944    4947
CHEXA       4256      21    5326    5207    5206    5325    4547    4428+
+           4427    4546    5727    5486    5725    5728    4252    4133+
+           4132    4251    4948    4707    4946    4949
CHEXA       4257      21    5327    5208    5207    5326    4548    4429+
+           4428    4547    5729    5488    5727    5730    4253    4134+
+           4133    4252    4950    4709    4948    4951
CHEXA       4258      21    5328    5209    5208    5327    4549    4430+
+           4429    4548    5731    5490    5729    5732    4254    4135+
+           4134    4253    4952    4711    4950    4953
CHEXA       4259      21    5329    5210    5209    5328    4550    4431+
+           4430    4549    5733    5492    5731    5734    4255    4136+
+           4135    4254    4954    4713    4952    4955
CHEXA       4260      21    5330    5211    5210    5329    4551    4432+
+           4431    4550    5735    5494    5733    5736    4256    4137+
+           4136    4255    4956    4715    4954    4957
CHEXA       4261      21    5331    5212    5211    5330    4552    4433+
+           4432    4551    5737    5496    5735    5738    4257    4138+
+           4137    4256    4958    4717    4956    4959
CHEXA       4262      21    5332    5213    5212    5331    4553    4434+
+           4433    4552    5739    5498    5737    5740    4258    4139+
+           4138    4257    4960    4719    4958    4961
CHEXA       4263      21    5333    5214    5213    5332    4554    4435+
+           4434    4553    5741    5500    5739    5742    4259    4140+
+           4139    4258    4962    4721    4960    4963
CHEXA       4264      21    5334    5215    5214    5333    4555    4436+
+           4435    4554    5743    5502    5741    5744    4260    4141+
+           4140    4259    4964    4723    4962    4965
CHEXA       4265      21    5335    5216    5215    5334    4556    4437+
+           4436    4555    5745    5504    5743    5746    4261    4142+
+           4141    4260    4966    4725    4964    4967
CHEXA       4266      21    5336    5217    5216    5335    4557    4438+
+           4437    4556    5747    5506    5745    5748    4262    4143+
+           4142    4261    4968    4727    4966    4969
CHEXA       4267      21    5337    5218    5217    5336    4558    4439+
+           4438    4557    5749    5508    5747    5750    4263    4144+
+           4143    4262    4970    4729    4968    4971
CHEXA       4268      21    5338    5219    5218    5337    4559    4440+
+           4439    4558    5751    5510    5749    5752    4264    4145+
+           4144    4263    4972    4731    4970    4973
CHEXA       4269      21    5339    5220    5219    5338    4560    4441+
+           4440    4559    5753    5512    5751    5754    4265    4146+
+           4145    4264    4974    4733    4972    4975
CHEXA       4270      21    5340    5221    5220    5339    4561    4442+
+           4441    4560    5755    5514    5753    5756    4266    4147+
+           4146    4265    4976    4735    4974    4977
CHEXA       4271      21    5341    5222    5221    5340    4562    4443+
+           4442    4561    5757    5516    5755    5758    4267    4148+
+           4147    4266    4978    4737    4976    4979
CHEXA       4272      21    5342    5223    5222    5341    4563    4444+
+           4443    4562    5759    5518    5757    5760    4268    4149+
+           4148    4267    4980    4739    4978    4981
CHEXA       4273      21    5343    5224    5223    5342    4564    4445+
+           4444    4563    5761    5520    5759    5762    4269    4150+
+           4149    4268    4982    4741    4980    4983
CHEXA       4274      21    5344    5225    5224    5343    4565    4446+
+           4445    4564    5763    5522    5761    5764    4270    4151+
+           4150    4269    4984    4743    4982    4985
CHEXA       4275      21    5345    5226    5225    5344    4566    4447+
+           4446    4565    5765    5524    5763    5766    4271    4152+
+           4151    4270    4986    4745    4984    4987
CHEXA       4276      21    5228    5227    5226    5345    4449    4448+
+           4447    4566    5529    5526    5765    5767    4154    4153+
+           4152    4271    4750    4747    4986    4988
CHEXA       4277      21    5346    5229    5228    5345    4567    4450+
+           4449    4566    5768    5531    5767    5769    4272    4155+
+           4154    4271    4989    4752    4988    4990
CHEXA       4278      21    5231    5230    5229    5346    4452    4451+
+           4450    4567    5536    5533    5768    5770    4157    4156+
+           4155    4272    4757    4754    4989    4991
CHEXA       4279      21    5347    5232    5231    5346    4568    4453+
+           4452    4567    5771    5538    5770    5772    4273    4158+
+           4157    4272    4992    4759    4991    4993
CHEXA       4280      21    5348    5233    5232    5347    4569    4454+
+           4453    4568    5773    5540    5771    5774    4274    4159+
+           4158    4273    4994    4761    4992    4995
CHEXA       4281      21    5349    5234    5233    5348    4570    4455+
+           4454    4569    5775    5542    5773    5776    4275    4160+
+           4159    4274    4996    4763    4994    4997
CHEXA       4282      21    5350    5235    5234    5349    4571    4456+
+           4455    4570    5777    5544    5775    5778    4276    4161+
+           4160    4275    4998    4765    4996    4999
CHEXA       4283      21    5351    5236    5235    5350    4572    4457+
+           4456    4571    5779    5546    5777    5780    4277    4162+
+           4161    4276    5000    4767    4998    5001
CHEXA       4284      21    5352    5237    5236    5351    4573    4458+
+           4457    4572    5781    5548    5779    5782    4278    4163+
+           4162    4277    5002    4769    5000    5003
CHEXA       4285      21    5353    5238    5237    5352    4574    4459+
+           4458    4573    5783    5550    5781    5784    4279    4164+
+           4163    4278    5004    4771    5002    5005
CHEXA       4286      21    5354    5239    5238    5353    4575    4460+
+           4459    4574    5785    5552    5783    5786    4280    4165+
+           4164    4279    5006    4773    5004    5007
CHEXA       4287      21    5355    5240    5239    5354    4576    4461+
+           4460    4575    5787    5554    5785    5788    4281    4166+
+           4165    4280    5008    4775    5006    5009
CHEXA       4288      21    5356    5241    5240    5355    4577    4462+
+           4461    4576    5789    5556    5787    5790    4282    4167+
+           4166    4281    5010    4777    5008    5011
CHEXA       4289      21    5357    5242    5241    5356    4578    4463+
+           4462    4577    5791    5558    5789    5792    4283    4168+
+           4167    4282    5012    4779    5010    5013
CHEXA       4290      21    5358    5243    5242    5357    4579    4464+
+           4463    4578    5793    5560    5791    5794    4284    4169+
+           4168    4283    5014    4781    5012    5015
CHEXA       4291      21    5359    5244    5243    5358    4580    4465+
+           4464    4579    5795    5562    5793    5796    4285    4170+
+           4169    4284    5016    4783    5014    5017
CHEXA       4292      21    5360    5245    5244    5359    4581    4466+
+           4465    4580    5797    5564    5795    5798    4286    4171+
+           4170    4285    5018    4785    5016    5019
CHEXA       4293      21    5361    5246    5245    5360    4582    4467+
+           4466    4581    5799    5566    5797    5800    4287    4172+
+           4171    4286    5020    4787    5018    5021
CHEXA       4294      21    5362    5247    5246    5361    4583    4468+
+           4467    4582    5801    5568    5799    5802    4288    4173+
+           4172    4287    5022    4789    5020    5023
CHEXA       4295      21    5363    5248    5247    5362    4584    4469+
+           4468    4583    5803    5570    5801    5804    4289    4174+
+           4173    4288    5024    4791    5022    5025
CHEXA       4296      21    5364    5249    5248    5363    4585    4470+
+           4469    4584    5805    5572    5803    5806    4290    4175+
+           4174    4289    5026    4793    5024    5027
CHEXA       4297      21    5365    5250    5249    5364    4586    4471+
+           4470    4585    5807    5574    5805    5808    4291    4176+
+           4175    4290    5028    4795    5026    5029
CHEXA       4298      21    5366    5251    5250    5365    4587    4472+
+           4471    4586    5809    5576    5807    5810    4292    4177+
+           4176    4291    5030    4797    5028    5031
CHEXA       4299      21    5367    5252    5251    5366    4588    4473+
+           4472    4587    5811    5578    5809    5812    4293    4178+
+           4177    4292    5032    4799    5030    5033
CHEXA       4300      21    5368    5253    5252    5367    4589    4474+
+           4473    4588    5813    5580    5811    5814    4294    4179+
+           4178    4293    5034    4801    5032    5035
CHEXA       4301      21    5369    5254    5253    5368    4590    4475+
+           4474    4589    5815    5582    5813    5816    4295    4180+
+           4179    4294    5036    4803    5034    5037
CHEXA       4302      21    5370    5255    5254    5369    4591    4476+
+           4475    4590    5817    5584    5815    5818    4296    4181+
+           4180    4295    5038    4805    5036    5039
CHEXA       4303      21    5371    5256    5255    5370    4592    4477+
+           4476    4591    5819    5586    5817    5820    4297    4182+
+           4181    4296    5040    4807    5038    5041
CHEXA       4304      21    5372    5257    5256    5371    4593    4478+
+           4477    4592    5821    5588    5819    5822    4298    4183+
+           4182    4297    5042    4809    5040    5043
CHEXA       4305      21    5373    5258    5257    5372    4594    4479+
+           4478    4593    5823    5590    5821    5824    4299    4184+
+           4183    4298    5044    4811    5042    5045
CHEXA       4306      21    5374    5259    5258    5373    4595    4480+
+           4479    4594    5825    5592    5823    5826    4300    4185+
+           4184    4299    5046    4813    5044    5047
CHEXA       4307      21    5375    5260    5259    5374    4596    4481+
+           4480    4595    5827    5594    5825    5828    4301    4186+
+           4185    4300    5048    4815    5046    5049
CHEXA       4308      21    5376    5261    5260    5375    4597    4482+
+           4481    4596    5829    5596    5827    5830    4302    4187+
+           4186    4301    5050    4817    5048    5051
CHEXA       4309      21    5377    5262    5261    5376    4598    4483+
+           4482    4597    5831    5598    5829    5832    4303    4188+
+           4187    4302    5052    4819    5050    5053
CHEXA       4310      21    5378    5263    5262    5377    4599    4484+
+           4483    4598    5833    5600    5831    5834    4304    4189+
+           4188    4303    5054    4821    5052    5055
CHEXA       4311      21    5379    5264    5263    5378    4600    4485+
+           4484    4599    5835    5602    5833    5836    4305    4190+
+           4189    4304    5056    4823    5054    5057
CHEXA       4312      21    5380    5265    5264    5379    4601    4486+
+           4485    4600    5837    5604    5835    5838    4306    4191+
+           4190    4305    5058    4825    5056    5059
CHEXA       4313      21    5381    5266    5265    5380    4602    4487+
+           4486    4601    5839    5606    5837    5840    4307    4192+
+           4191    4306    5060    4827    5058    5061
CHEXA       4314      21    5382    5267    5266    5381    4603    4488+
+           4487    4602    5841    5608    5839    5842    4308    4193+
+           4192    4307    5062    4829    5060    5063
CHEXA       4315      21    5383    5268    5267    5382    4604    4489+
+           4488    4603    5843    5610    5841    5844    4309    4194+
+           4193    4308    5064    4831    5062    5065
CHEXA       4316      21    5384    5269    5268    5383    4605    4490+
+           4489    4604    5845    5612    5843    5846    4310    4195+
+           4194    4309    5066    4833    5064    5067
CHEXA       4317      21    5385    5270    5269    5384    4606    4491+
+           4490    4605    5847    5614    5845    5848    4311    4196+
+           4195    4310    5068    4835    5066    5069
CHEXA       4318      21    5386    5271    5270    5385    4607    4492+
+           4491    4606    5849    5616    5847    5850    4312    4197+
+           4196    4311    5070    4837    5068    5071
CHEXA       4319      21    5387    5272    5271    5386    4608    4493+
+           4492    4607    5851    5618    5849    5852    4313    4198+
+           4197    4312    5072    4839    5070    5073
CHEXA       4320      21    5388    5273    5272    5387    4609    4494+
+           4493    4608    5853    5620    5851    5854    4314    4199+
+           4198    4313    5074    4841    5072    5075
CHEXA       4321      21    5389    5274    5273    5388    4610    4495+
+           4494    4609    5855    5622    5853    5856    4315    4200+
+           4199    4314    5076    4843    5074    5077
CHEXA       4322      21    5390    5275    5274    5389    4611    4496+
+           4495    4610    5857    5624    5855    5858    4316    4201+
+           4200    4315    5078    4845    5076    5079
CHEXA       4323      21    5391    5276    5275    5390    4612    4497+
+           4496    4611    5859    5626    5857    5860    4317    4202+
+           4201    4316    5080    4847    5078    5081
CHEXA       4324      21    5392    5277    5276    5391    4613    4498+
+           4497    4612    5861    5628    5859    5862    4318    4203+
+           4202    4317    5082    4849    5080    5083
CHEXA       4325      21    5393    5278    5277    5392    4614    4499+
+           4498    4613    5863    5630    5861    5864    4319    4204+
+           4203    4318    5084    4851    5082    5085
CHEXA       4326      21    5394    5279    5278    5393    4615    4500+
+           4499    4614    5865    5632    5863    5866    4320    4205+
+           4204    4319    5086    4853    5084    5087
CHEXA       4327      21    5395    5280    5279    5394    4616    4501+
+           4500    4615    5867    5634    5865    5868    4321    4206+
+           4205    4320    5088    4855    5086    5089
CHEXA       4328      21    5396    5281    5280    5395    4617    4502+
+           4501    4616    5869    5636    5867    5870    4322    4207+
+           4206    4321    5090    4857    5088    5091
CHEXA       4329      21    5397    5282    5281    5396    4618    4503+
+           4502    4617    5871    5638    5869    5872    4323    4208+
+           4207    4322    5092    4859    5090    5093
CHEXA       4330      21    5398    5283    5282    5397    4619    4504+
+           4503    4618    5873    5640    5871    5874    4324    4209+
+           4208    4323    5094    4861    5092    5095
CHEXA       4331      21    5399    5284    5283    5398    4620    4505+
+           4504    4619    5875    5642    5873    5876    4325    4210+
+           4209    4324    5096    4863    5094    5097
CHEXA       4332      21    5400    5285    5284    5399    4621    4506+
+           4505    4620    5877    5644    5875    5878    4326    4211+
+           4210    4325    5098    4865    5096    5099
CHEXA       4333      21    5401    5286    5285    5400    4622    4507+
+           4506    4621    5879    5646    5877    5880    4327    4212+
+           4211    4326    5100    4867    5098    5101
CHEXA       4334      21    5288    5287    5286    5401    4509    4508+
+           4507    4622    5650    5648    5879    5881    4214    4213+
+           4212    4327    4871    4869    5100    5102
CHEXA       4335      21    5347    5346    5345    5344    4568    4567+
+           4566    4565    5772    5769    5766    5882    4273    4272+
+           4271    4270    4993    4990    4987    5103
CHEXA       4336      21    5343    5342    5349    5348    4564    4563+
+           4570    4569    5762    5883    5776    5884    4269    4268+
+           4275    4274    4983    5104    4997    5105
CHEXA       4337      21    5347    5344    5343    5348    4568    4565+
+           4564    4569    5882    5764    5884    5774    4273    4270+
+           4269    4274    5103    4985    5105    4995
CHEXA       4338      21    5339    5338    5353    5352    4560    4559+
+           4574    4573    5754    5885    5784    5886    4265    4264+
+           4279    4278    4975    5106    5005    5107
CHEXA       4339      21    5351    5340    5339    5352    4572    4561+
+           4560    4573    5887    5756    5886    5782    4277    4266+
+           4265    4278    5108    4977    5107    5003
CHEXA       4340      21    5350    5349    5342    5341    4571    4570+
+           4563    4562    5778    5883    5760    5888    4276    4275+
+           4268    4267    4999    5104    4981    5109
CHEXA       4341      21    5340    5351    5350    5341    4561    4572+
+           4571    4562    5887    5780    5888    5758    4266    4277+
+           4276    4267    5108    5001    5109    4979
CHEXA       4342      21    5332    5331    5360    5359    4553    4552+
+           4581    4580    5740    5889    5798    5890    4258    4257+
+           4286    4285    4961    5110    5019    5111
CHEXA       4343      21    5358    5357    5334    5333    4579    4578+
+           4555    4554    5794    5891    5744    5892    4284    4283+
+           4260    4259    5015    5112    4965    5113
CHEXA       4344      21    5332    5359    5358    5333    4553    4580+
+           4579    4554    5890    5796    5892    5742    4258    4285+
+           4284    4259    5111    5017    5113    4963
CHEXA       4345      21    5354    5353    5338    5337    4575    4574+
+           4559    4558    5786    5885    5752    5893    4280    4279+
+           4264    4263    5007    5106    4973    5114
CHEXA       4346      21    5336    5355    5354    5337    4557    4576+
+           4575    4558    5894    5788    5893    5750    4262    4281+
+           4280    4263    5115    5009    5114    4971
CHEXA       4347      21    5335    5334    5357    5356    4556    4555+
+           4578    4577    5746    5891    5792    5895    4261    4260+
+           4283    4282    4967    5112    5013    5116
CHEXA       4348      21    5355    5336    5335    5356    4576    4557+
+           4556    4577    5894    5748    5895    5790    4281    4262+
+           4261    4282    5115    4969    5116    5011
CHEXA       4349      21    5372    5371    5320    5319    4593    4592+
+           4541    4540    5822    5896    5716    5897    4298    4297+
+           4246    4245    5043    5117    4937    5118
CHEXA       4350      21    5318    5317    5374    5373    4539    4538+
+           4595    4594    5712    5898    5826    5899    4244    4243+
+           4300    4299    4933    5119    5047    5120
CHEXA       4351      21    5372    5319    5318    5373    4593    4540+
+           4539    4594    5897    5714    5899    5824    4298    4245+
+           4244    4299    5118    4935    5120    5045
CHEXA       4352      21    5368    5367    5324    5323    4589    4588+
+           4545    4544    5814    5900    5724    5901    4294    4293+
+           4250    4249    5035    5121    4945    5122
CHEXA       4353      21    5322    5369    5368    5323    4543    4590+
+           4589    4544    5902    5816    5901    5722    4248    4295+
+           4294    4249    5123    5037    5122    4943
CHEXA       4354      21    5321    5320    5371    5370    4542    4541+
+           4592    4591    5718    5896    5820    5903    4247    4246+
+           4297    4296    4939    5117    5041    5124
CHEXA       4355      21    5369    5322    5321    5370    4590    4543+
+           4542    4591    5902    5720    5903    5818    4295    4248+
+           4247    4296    5123    4941    5124    5039
CHEXA       4356      21    5325    5324    5367    5366    4546    4545+
+           4588    4587    5726    5900    5812    5904    4251    4250+
+           4293    4292    4947    5121    5033    5125
CHEXA       4357      21    5365    5364    5327    5326    4586    4585+
+           4548    4547    5808    5905    5730    5906    4291    4290+
+           4253    4252    5029    5126    4951    5127
CHEXA       4358      21    5325    5366    5365    5326    4546    4587+
+           4586    4547    5904    5810    5906    5728    4251    4292+
+           4291    4252    5125    5031    5127    4949
CHEXA       4359      21    5361    5360    5331    5330    4582    4581+
+           4552    4551    5800    5889    5738    5907    4287    4286+
+           4257    4256    5021    5110    4959    5128
CHEXA       4360      21    5329    5362    5361    5330    4550    4583+
+           4582    4551    5908    5802    5907    5736    4255    4288+
+           4287    4256    5129    5023    5128    4957
CHEXA       4361      21    5328    5327    5364    5363    4549    4548+
+           4585    4584    5732    5905    5806    5909    4254    4253+
+           4290    4289    4953    5126    5027    5130
CHEXA       4362      21    5362    5329    5328    5363    4583    4550+
+           4549    4584    5908    5734    5909    5804    4288    4255+
+           4254    4289    5129    4955    5130    5025
CHEXA       4363      21    5294    5293    5398    5397    4515    4514+
+           4619    4618    5664    5910    5874    5911    4220    4219+
+           4324    4323    4885    5131    5095    5132
CHEXA       4364      21    5396    5395    5296    5295    4617    4616+
+           4517    4516    5870    5912    5668    5913    4322    4321+
+           4222    4221    5091    5133    4889    5134
CHEXA       4365      21    5294    5397    5396    5295    4515    4618+
+           4617    4516    5911    5872    5913    5666    4220    4323+
+           4322    4221    5132    5093    5134    4887
CHEXA       4366      21    5290    5289    5288    5401    4511    4510+
+           4509    4622    5656    5653    5881    5914    4216    4215+
+           4214    4327    4877    4874    5102    5135
CHEXA       4367      21    5400    5291    5290    5401    4621    4512+
+           4511    4622    5915    5658    5914    5880    4326    4217+
+           4216    4327    5136    4879    5135    5101
CHEXA       4368      21    5399    5398    5293    5292    4620    4619+
+           4514    4513    5876    5910    5662    5916    4325    4324+
+           4219    4218    5097    5131    4883    5137
CHEXA       4369      21    5291    5400    5399    5292    4512    4621+
+           4620    4513    5915    5878    5916    5660    4217    4326+
+           4325    4218    5136    5099    5137    4881
CHEXA       4370      21    5389    5388    5303    5302    4610    4609+
+           4524    4523    5856    5917    5682    5918    4315    4314+
+           4229    4228    5077    5138    4903    5139
CHEXA       4371      21    5301    5300    5391    5390    4522    4521+
+           4612    4611    5678    5919    5860    5920    4227    4226+
+           4317    4316    4899    5140    5081    5141
CHEXA       4372      21    5389    5302    5301    5390    4610    4523+
+           4522    4611    5918    5680    5920    5858    4315    4228+
+           4227    4316    5139    4901    5141    5079
CHEXA       4373      21    5297    5296    5395    5394    4518    4517+
+           4616    4615    5670    5912    5868    5921    4223    4222+
+           4321    4320    4891    5133    5089    5142
CHEXA       4374      21    5393    5298    5297    5394    4614    4519+
+           4518    4615    5922    5672    5921    5866    4319    4224+
+           4223    4320    5143    4893    5142    5087
CHEXA       4375      21    5392    5391    5300    5299    4613    4612+
+           4521    4520    5862    5919    5676    5923    4318    4317+
+           4226    4225    5083    5140    4897    5144
CHEXA       4376      21    5298    5393    5392    5299    4519    4614+
+           4613    4520    5922    5864    5923    5674    4224    4319+
+           4318    4225    5143    5085    5144    4895
CHEXA       4377      21    5311    5310    5381    5380    4532    4531+
+           4602    4601    5698    5924    5840    5925    4237    4236+
+           4307    4306    4919    5145    5061    5146
CHEXA       4378      21    5379    5378    5313    5312    4600    4599+
+           4534    4533    5836    5926    5702    5927    4305    4304+
+           4239    4238    5057    5147    4923    5148
CHEXA       4379      21    5311    5380    5379    5312    4532    4601+
+           4600    4533    5925    5838    5927    5700    4237    4306+
+           4305    4238    5146    5059    5148    4921
CHEXA       4380      21    5375    5374    5317    5316    4596    4595+
+           4538    4537    5828    5898    5710    5928    4301    4300+
+           4243    4242    5049    5119    4931    5149
CHEXA       4381      21    5315    5376    5375    5316    4536    4597+
+           4596    4537    5929    5830    5928    5708    4241    4302+
+           4301    4242    5150    5051    5149    4929
CHEXA       4382      21    5314    5313    5378    5377    4535    4534+
+           4599    4598    5704    5926    5834    5930    4240    4239+
+           4304    4303    4925    5147    5055    5151
CHEXA       4383      21    5376    5315    5314    5377    4597    4536+
+           4535    4598    5929    5706    5930    5832    4302    4241+
+           4240    4303    5150    4927    5151    5053
CHEXA       4384      21    5304    5303    5388    5387    4525    4524+
+           4609    4608    5684    5917    5854    5931    4230    4229+
+           4314    4313    4905    5138    5075    5152
CHEXA       4385      21    5386    5385    5306    5305    4607    4606+
+           4527    4526    5850    5932    5688    5933    4312    4311+
+           4232    4231    5071    5153    4909    5154
CHEXA       4386      21    5304    5387    5386    5305    4525    4608+
+           4607    4526    5931    5852    5933    5686    4230    4313+
+           4312    4231    5152    5073    5154    4907
CHEXA       4387      21    5382    5381    5310    5309    4603    4602+
+           4531    4530    5842    5924    5696    5934    4308    4307+
+           4236    4235    5063    5145    4917    5155
CHEXA       4388      21    5308    5383    5382    5309    4529    4604+
+           4603    4530    5935    5844    5934    5694    4234    4309+
+           4308    4235    5156    5065    5155    4915
CHEXA       4389      21    5307    5306    5385    5384    4528    4527+
+           4606    4605    5690    5932    5848    5936    4233    4232+
+           4311    4310    4911    5153    5069    5157
CHEXA       4390      21    5383    5308    5307    5384    4604    4529+
+           4528    4605    5935    5692    5936    5846    4309    4234+
+           4233    4310    5156    4913    5157    5067
$*  NX mesh: [RailSlab_f]:Rail_Slab_Connection_Mesh
CBUSH       4451      12    6632    66931.000000  0.0000  0.0000
CBUSH       4452      12    6633    66941.000000  0.0000  0.0000
CBUSH       4453      12    6634    66951.000000  0.0000  0.0000
CBUSH       4454      12    6635    66961.000000  0.0000  0.0000
CBUSH       4455      12    6636    66971.000000  0.0000  0.0000
CBUSH       4456      12    6637    66981.000000  0.0000  0.0000
CBUSH       4457      12    6638    66991.000000  0.0000  0.0000
CBUSH       4458      12    6639    67001.000000  0.0000  0.0000
CBUSH       4459      12    6640    67011.000000  0.0000  0.0000
CBUSH       4460      12    6641    67021.000000  0.0000  0.0000
CBUSH       4461      12    6642    67031.000000  0.0000  0.0000
CBUSH       4462      12    6643    67041.000000  0.0000  0.0000
CBUSH       4463      12    6644    67051.000000  0.0000  0.0000
CBUSH       4464      12    6645    67061.000000  0.0000  0.0000
CBUSH       4465      12    6646    67071.000000  0.0000  0.0000
CBUSH       4466      12    6647    67081.000000  0.0000  0.0000
CBUSH       4467      12    6648    67091.000000  0.0000  0.0000
CBUSH       4468      12    6649    67101.000000  0.0000  0.0000
CBUSH       4469      12    6650    67111.000000  0.0000  0.0000
CBUSH       4470      12    6651    67121.000000  0.0000  0.0000
CBUSH       4471      12    6652    67131.000000  0.0000  0.0000
CBUSH       4472      12    6653    67141.000000  0.0000  0.0000
CBUSH       4473      12    6654    67151.000000  0.0000  0.0000
CBUSH       4474      12    6655    67161.000000  0.0000  0.0000
CBUSH       4475      12    6656    67171.000000  0.0000  0.0000
CBUSH       4476      12    6657    67181.000000  0.0000  0.0000
CBUSH       4477      12    6658    67191.000000  0.0000  0.0000
CBUSH       4478      12    6659    67201.000000  0.0000  0.0000
CBUSH       4479      12    6660    67211.000000  0.0000  0.0000
CBUSH       4480      12    6661    67221.000000  0.0000  0.0000
CBUSH       4481      12    6662    67231.000000  0.0000  0.0000
CBUSH       4482      12    6663    67241.000000  0.0000  0.0000
CBUSH       4483      12    6664    67251.000000  0.0000  0.0000
CBUSH       4484      12    6665    67261.000000  0.0000  0.0000
CBUSH       4485      12    6666    67271.000000  0.0000  0.0000
CBUSH       4486      12    6667    67281.000000  0.0000  0.0000
CBUSH       4487      12    6668    67291.000000  0.0000  0.0000
CBUSH       4488      12    6669    67301.000000  0.0000  0.0000
CBUSH       4489      12    6670    67311.000000  0.0000  0.0000
CBUSH       4490      12    6671    67321.000000  0.0000  0.0000
CBUSH       4491      12    6672    67331.000000  0.0000  0.0000
CBUSH       4492      12    6673    67341.000000  0.0000  0.0000
CBUSH       4493      12    6674    67351.000000  0.0000  0.0000
CBUSH       4494      12    6675    67361.000000  0.0000  0.0000
CBUSH       4495      12    6676    67371.000000  0.0000  0.0000
CBUSH       4496      12    6677    67381.000000  0.0000  0.0000
CBUSH       4497      12    6678    67391.000000  0.0000  0.0000
CBUSH       4498      12    6679    67401.000000  0.0000  0.0000
CBUSH       4499      12    6680    67411.000000  0.0000  0.0000
CBUSH       4500      12    6681    67421.000000  0.0000  0.0000
CBUSH       4501      12    6682    67431.000000  0.0000  0.0000
CBUSH       4502      12    6683    67441.000000  0.0000  0.0000
CBUSH       4503      12    6684    67451.000000  0.0000  0.0000
CBUSH       4504      12    6685    67461.000000  0.0000  0.0000
CBUSH       4505      12    6686    67471.000000  0.0000  0.0000
CBUSH       4506      12    6687    67481.000000  0.0000  0.0000
CBUSH       4507      12    6688    67491.000000  0.0000  0.0000
CBUSH       4508      12    6689    67501.000000  0.0000  0.0000
CBUSH       4509      12    6690    67511.000000  0.0000  0.0000
CBUSH       4510      12    6691    67521.000000  0.0000  0.0000
CBUSH       4511      12    6692    67531.000000  0.0000  0.0000
$*
$* PROPERTY CARDS
$*
$*  NX Property: Bridge_PSOLID
PSOLID         4       1       0                           SMECH
$*  NX Property: Slab_Bridge_PBUSH1
PBUSH          6       K        1.1185+8                                +
+                     GE        1.6866+6
$*  NX Property: Rail_BEAM
$*  NX Section: Rail_Section
PBEAM         18       21.0000+54.8333+91.0833+9  0.00002.2177+8  0.0000+
+       300.0000249.9873-300.000249.9873-300.000-250.013300.0000-250.013+
+            YES1.0000001.0000+54.8333+91.0833+9  0.00002.2177+8  0.0000+
+       300.0000249.9873-300.000249.9873-300.000-250.013300.0000-250.013+
+       0.5016840.503793                                7.434+137.434+13+
+                                         0.0000-0.01270  0.0000-0.01270
$*  NX Property: Slab_PSOLID
PSOLID        21       3       0                           SMECH
$*  NX Property: Rail_Slab_Connection_Pbush
PBUSH         12       K        2.2370+8                                +
+                      B        8.4330+5
$*
$* MATERIAL CARDS
$*
$*  NX Material: Bridge_Material
MAT1           13.3000+7        0.3500001.0000-51.2600-5
$*  NX Material: Rail_Steel
MAT1           22.1000+8        0.3000006.0640-81.2600-5
$*  NX Material: Slab_Material
MAT1           31.4300+6        0.3000004.8512-6
$*
$* LOAD AND CONSTRAINT CARDS
$*
$*  NX Load and Constraint: FrontConstraint
SPC            1    1937     123  0.0000
SPC            1    1938     123  0.0000
SPC            1    1939     123  0.0000
SPC            1    1940     123  0.0000
SPC            1    1941     123  0.0000
SPC            1    1942     123  0.0000
SPC            1    1943     123  0.0000
SPC            1    1944     123  0.0000
SPC            1    1945     123  0.0000
SPC            1    2097     123  0.0000
SPC            1    2098     123  0.0000
$*  NX Load and Constraint: MiddleConstraint(1)
SPC            2    3866       2  0.0000
SPC            2    3867       2  0.0000
SPC            2    3868       2  0.0000
SPC            2    3869       2  0.0000
SPC            2    3870       2  0.0000
SPC            2    3871       2  0.0000
SPC            2    3872       2  0.0000
SPC            2    3873       2  0.0000
SPC            2    3874       2  0.0000
SPC            2    4026       2  0.0000
SPC            2    4028       2  0.0000
$*  NX Load and Constraint: RearConstraint
SPC            3    3875     123  0.0000
SPC            3    3876     123  0.0000
SPC            3    3877     123  0.0000
SPC            3    3878     123  0.0000
SPC            3    3879     123  0.0000
SPC            3    3880     123  0.0000
SPC            3    3881     123  0.0000
SPC            3    3882     123  0.0000
SPC            3    3883     123  0.0000
SPC            3    4025     123  0.0000
SPC            3    4029     123  0.0000
SPCADD       100       1       2       3
ENDDATA
